$ B2 phase from Connetable et al., Calphad 2008, 32 (2), 361–370.
$ https://doi.org/10.1016/j.calphad.2008.01.002.

 ELEMENT VA   VACUUM                    0.0000E+00  0.0000E+00  0.0000E+00!
 ELEMENT AL   FCC_A1                    2.6982E+01  4.5400E+03  2.8300E+01!
 ELEMENT C    GRAPHITE                  1.2011E+01  1.0540E+03  5.7423E+00!
 ELEMENT FE   BCC_A2                    5.5847E+01  4.4890E+03  2.7280E+01!


 FUNCTION GHSERAL   298.15 -7976.15+137.093038*T-24.3671976*T*LN(T)
     -.001884662*T**2-8.77664E-07*T**3+74092*T**(-1); 700 Y
      -11276.24+223.048446*T-38.5844296*T*LN(T)+.018531982*T**2
     -5.764227E-06*T**3+74092*T**(-1); 933.47 Y
      -11278.378+188.684153*T-31.748192*T*LN(T)-1.230524E+28*T**(-9); 2900 N
     !
 FUNCTION GB2ALVA   298.15 +10000-T-30*T; 6000 N !
 FUNCTION LB2ALVA   298.15 +150000; 6000 N !
 FUNCTION GHSERCC   298.15 -17368.441+170.73*T-24.3*T*LN(T)-4.723E-04*T**2
     +2562600*T**(-1)-2.643E+08*T**(-2)+1.2E+10*T**(-3); 6000 N !
 FUNCTION GHSERFE   298.15 +1225.7+124.134*T-23.5143*T*LN(T)-.00439752*T**2
     -5.8927E-08*T**3+77359*T**(-1); 1811 Y
      -25383.581+299.31255*T-46*T*LN(T)+2.29603E+31*T**(-9); 6000 N !
 FUNCTION ZERO      298.15 +0.0; 6000 N !
 FUNCTION GB2ALFE   298.15 +4*UB1ALFE#; 6000 N !
 FUNCTION UB2ALFE   298.15 -1973-2*T; 6000 N !
 FUNCTION UTCBALFE  298.15 -125; 6000 N !
 FUNCTION UBMBALFE  298.15 -1.36; 6000 N !
 FUNCTION BM0BALFE  298.15 -.3; 6000 N !
 FUNCTION BM1BALFE  298.15 -.8; 6000 N !
 FUNCTION BM2BALFE  298.15 +.2; 6000 N !
 FUNCTION UB1ALFE   298.15 -4023-1.14*T; 6000 N !

 TYPE_DEFINITION % SEQ *!
 DEFINE_SYSTEM_DEFAULT ELEMENT 2 !
 DEFAULT_COMMAND DEF_SYS_ELEMENT VA !


 TYPE_DEFINITION ' GES A_P_D A2_BCC MAGNETIC  -1.0    4.00000E-01 !
 PHASE A2_BCC  %'  2 1   3 !
    CONSTITUENT A2_BCC  :AL,FE,VA : C,VA% :  !

   PARAMETER G(A2_BCC,AL:C;0)             298.15 +GHSERAL#+3*GHSERCC#+100000
  +80*T; 6000 N REF77 !
   PARAMETER G(A2_BCC,FE:C;0)             298.15 +GHSERFE#+3*GHSERCC#+322050
  +75.667*T; 6000 N REF7 !
   PARAMETER TC(A2_BCC,FE:C;0)            298.15 +1043; 6000 N REF7 !
   PARAMETER BMAGN(A2_BCC,FE:C;0)         298.15 +2.22; 6000 N REF7 !
   PARAMETER G(A2_BCC,VA:C;0)             298.15 +30*T; 6000 N REF79 !
   PARAMETER G(A2_BCC,AL:VA;0)            298.15 +GHSERAL#+10083-4.813*T;
  2900 N REF32 !
   PARAMETER G(A2_BCC,FE:VA;0)            298.15 +GHSERFE#; 6000 N REF32 !
   PARAMETER TC(A2_BCC,FE:VA;0)           298.15 +1043; 6000 N REF32 !
   PARAMETER BMAGN(A2_BCC,FE:VA;0)        298.15 +2.22; 6000 N REF32 !
   PARAMETER G(A2_BCC,VA:VA;0)            298.15 +30*T; 6000 N REF79 !
   PARAMETER G(A2_BCC,AL:C,VA;0)          298.15 +130000+14*T; 6000 N REF77 !
   PARAMETER G(A2_BCC,FE:C,VA;0)          298.15 -190*T; 6000 N REF7 !
   PARAMETER G(A2_BCC,AL,VA:VA;0)         298.15 +GB2ALVA#+LB2ALVA#; 6000 N
  REF56 !
   PARAMETER G(A2_BCC,AL,FE:VA;0)         298.15 -122960+32*T; 6000 N REF46 !
   PARAMETER G(A2_BCC,AL,FE:VA;1)         298.15 +2945.2; 6000 N REF46 !
   PARAMETER TC(A2_BCC,AL,FE:VA;0)        298.15 -438; 6000 N REF79 !
   PARAMETER TC(A2_BCC,AL,FE:VA;1)        298.15 -1720; 6000 N REF79 !
   PARAMETER G(A2_BCC,FE,VA:VA;0)         298.15 +150000; 6000 N REF79 !


$ THIS PHASE HAS A DISORDERED CONTRIBUTION FROM A2_BCC
 TYPE_DEFINITION ( GES AMEND_PHASE_DESCRIPTION B2_BCC DIS_PART A2_BCC,,,!
 TYPE_DEFINITION ) GES A_P_D B2_BCC MAGNETIC  -1.0    4.00000E-01 !
 PHASE B2_BCC  %()  3 .5   .5   3 !
    CONSTITUENT B2_BCC  :AL,FE,VA : AL,FE,VA% : C,VA :  !

   PARAMETER G(B2_BCC,AL:AL:C;0)          298.15 +ZERO#; 6000 N REF77 !
   PARAMETER G(B2_BCC,FE:AL:C;0)          298.15 +ZERO#; 6000 N REF77 !
   PARAMETER G(B2_BCC,VA:AL:C;0)          298.15 +ZERO#; 6000 N REF77 !
   PARAMETER G(B2_BCC,AL:FE:C;0)          298.15 +ZERO#; 6000 N REF77 !
   PARAMETER G(B2_BCC,FE:FE:C;0)          298.15 +ZERO#; 6000 N REF77 !
   PARAMETER G(B2_BCC,VA:FE:C;0)          298.15 +ZERO#; 6000 N REF77 !
   PARAMETER G(B2_BCC,AL:VA:C;0)          298.15 +ZERO#; 6000 N REF77 !
   PARAMETER G(B2_BCC,FE:VA:C;0)          298.15 +ZERO#; 6000 N REF77 !
       PARA G(B2_BCC,VA:VA:C;0) 298.15 +0; 6000 N!
       PARA G(B2_BCC,AL:AL:VA;0) 298.15 +0; 6000 N!
   PARAMETER G(B2_BCC,FE:AL:VA;0)         298.15 +GB2ALFE#; 6000 N REF79 !
   PARAMETER TC(B2_BCC,FE:AL:VA;0)        298.15 +2*UTCBALFE#; 6000 N REF79 !
   PARAMETER BMAGN(B2_BCC,FE:AL:VA;0)     298.15 +2*UBMBALFE#; 6000 N REF79 !
   PARAMETER G(B2_BCC,VA:AL:VA;0)         298.15 +.5*GB2ALVA#-.5*LB2ALVA#;
  6000 N REF56 !
   PARAMETER G(B2_BCC,AL:FE:VA;0)         298.15 +GB2ALFE#; 6000 N REF79 !
   PARAMETER TC(B2_BCC,AL:FE:VA;0)        298.15 +2*UTCBALFE#; 6000 N REF79 !
   PARAMETER BMAGN(B2_BCC,AL:FE:VA;0)     298.15 +2*UBMBALFE#; 6000 N REF79 !
       PARA G(B2_BCC,FE:FE:VA;0) 298.15 +0; 6000 N!
   PARAMETER G(B2_BCC,VA:FE:VA;0)         298.15 +ZERO#; 6000 N REF79 !
   PARAMETER G(B2_BCC,AL:VA:VA;0)         298.15 +.5*GB2ALVA#-.5*LB2ALVA#;
  6000 N REF56 !
   PARAMETER G(B2_BCC,FE:VA:VA;0)         298.15 +ZERO#; 6000 N REF79 !
       PARA G(B2_BCC,VA:VA:VA;0) 298.15 +0; 6000 N!
       PARA G(B2_BCC,AL:*:VA;0) 298.15 +0; 6000 N!
       PARA G(B2_BCC,*:AL:VA;0) 298.15 +0; 6000 N!
   PARAMETER G(B2_BCC,AL,FE:AL:VA;0)      298.15 +5600; 6000 N REF79 !
   PARAMETER G(B2_BCC,AL,FE:AL,FE:VA;0)   298.15 -8400-4.8*T; 6000 N REF79 !
   PARAMETER G(B2_BCC,AL:AL,FE:VA;0)      298.15 +5600; 6000 N REF79 !
   PARAMETER G(B2_BCC,FE:AL,FE:VA;0)      298.15 -1400+2.4*T; 6000 N REF79 !
   PARAMETER G(B2_BCC,AL,FE:FE:VA;0)      298.15 -1400+2.4*T; 6000 N REF79 !
   PARAMETER G(B2_BCC,AL,FE:*:VA;0)       298.15 +2*UB2ALFE#; 6000 N REF79 !
   PARAMETER G(B2_BCC,AL,FE:*:VA;1)       298.15 -524; 6000 N REF79 !
   PARAMETER G(B2_BCC,AL,FE:*:VA;2)       298.15 -1560; 6000 N REF79 !
   PARAMETER TC(B2_BCC,AL,FE:*:VA;0)      298.15 -2*UTCBALFE#; 6000 N REF79 !
   PARAMETER BMAGN(B2_BCC,AL,FE:*:VA;0)   298.15 +2*BM0BALFE#; 6000 N REF79 !
   PARAMETER BMAGN(B2_BCC,AL,FE:*:VA;1)   298.15 +2*BM1BALFE#; 6000 N REF79 !
   PARAMETER BMAGN(B2_BCC,AL,FE:*:VA;2)   298.15 +2*BM2BALFE#; 6000 N REF79 !
   PARAMETER G(B2_BCC,*:AL,FE:VA;0)       298.15 +2*UB2ALFE#; 6000 N REF79 !
   PARAMETER G(B2_BCC,*:AL,FE:VA;1)       298.15 -524; 6000 N REF79 !
   PARAMETER G(B2_BCC,*:AL,FE:VA;2)       298.15 -1560; 6000 N REF79 !
   PARAMETER TC(B2_BCC,*:AL,FE:VA;0)      298.15 -2*UTCBALFE#; 6000 N REF79 !
   PARAMETER BMAGN(B2_BCC,*:AL,FE:VA;0)   298.15 +2*BM0BALFE#; 6000 N REF79 !
   PARAMETER BMAGN(B2_BCC,*:AL,FE:VA;1)   298.15 +2*BM1BALFE#; 6000 N REF79 !
   PARAMETER BMAGN(B2_BCC,*:AL,FE:VA;2)   298.15 +2*BM2BALFE#; 6000 N REF79 !