$****************************************************************************
$$ Al-Fe-O Ternary
$$
$****************************************************************************
$****************************************************************************
$$ Database developed by:
$$ Greta Lindwall
$$ Xuan L. Liu 
$$ Zi-Kui Liu
$$ Maj 2015
$****************************************************************************
            
 ELEMENT /-   ELECTRON_GAS              0.0000E+00  0.0000E+00  0.0000E+00!
 ELEMENT VA   VACUUM                    0.0000E+00  0.0000E+00  0.0000E+00!
 ELEMENT AL   FCC_A1                    2.6982E+01  4.5773E+03  2.8322E+01!
 ELEMENT FE   BCC_A2                    5.5847E+01  4.4890E+03  2.7280E+01!
 ELEMENT O    1/2_MOLE_O2(G)            1.5999E+01  4.3410E+03  1.0252E+02!
 
 SPECIES AL+3                        AL1/+3!
 SPECIES AL1O1                       AL1O1!
 SPECIES AL1O2                       AL1O2!
 SPECIES AL2                         AL2!
 SPECIES AL2FE1O4                    AL2FE1O4!
 SPECIES AL2O                        AL2O1!
 SPECIES AL2O1                       AL2O1!
 SPECIES AL2O2                       AL2O2!
 SPECIES AL2O3                       AL2O3!
 SPECIES ALO                         AL1O1!
 SPECIES ALO2                        AL1O2!
 SPECIES ALO3/2                      AL1O1.5!
 SPECIES FE+2                        FE1/+2!
 SPECIES FE+3                        FE1/+3!
 SPECIES FE+4                        FE1/+4!
 SPECIES FE1O1                       FE1O1!
 SPECIES FE1O2                       FE1O2!
 SPECIES FE2                         FE2!
 SPECIES FE2O3                       FE2O3!
 SPECIES FEO                         FE1O1!
 SPECIES FEO3/2                      FE1O1.5!
 SPECIES O-2                         O1/-2!
 SPECIES O2                          O2!
 SPECIES O3                          O3!


$$$$$$$$$$$$$$$$$$$$$$$$$$$$$$$$$$$$$$$$$$$$$$$$$$$$$$$$$$$$$$$$$$$$$$$$$$$$$$
$--DEFAULT FUNCS-------------------------------------------------------------$
$$$$$$$$$$$$$$$$$$$$$$$$$$$$$$$$$$$$$$$$$$$$$$$$$$$$$$$$$$$$$$$$$$$$$$$$$$$$$$
 
 FUNCTION F162T      298.15  +308413.104-26.8663217*T-20.78039*T*LN(T)
     +3.520865E-08*T**2-1.789015E-10*T**3-27114.25*T**(-1);  3.30000E+03  Y
      +294502.846+22.5173774*T-26.85062*T*LN(T)+.001194919*T**2
     -4.501805E-08*T**3+6025110*T**(-1);  6.40000E+03  Y
      +447945.062-285.801392*T+8.243415*T*LN(T)-.0023944315*T**2
     +2.426725E-08*T**3-1.2048605E+08*T**(-1);  9.40000E+03  Y
      +349945.955-150.289475*T-6.454579*T*LN(T)-.0014339715*T**2
     +1.278805E-08*T**3;  1.00000E+04  N !
 FUNCTION F577T      298.15  +68468.7356-29.708552*T-27.37717*T*LN(T)
     -.008706905*T**2+1.34759667E-06*T**3+42904.83*T**(-1);  8.00000E+02  Y
      +70559.2235-26.9045572*T-28.56166*T*LN(T)-.0034503355*T**2
     -1.4328805E-07*T**3-437311.7*T**(-1);  1.60000E+03  Y
      +68575.8626-63.4014165*T-22.54674*T*LN(T)-.009242035*T**2
     +5.66213667E-07*T**3+1636864.5*T**(-1);  2.80000E+03  Y
      -17076.0658+348.591643*T-75.33292*T*LN(T)+.005011805*T**2
     -1.47269833E-07*T**3+27223195*T**(-1);  6000.0  N !
 FUNCTION F587T      298.15  -200250.88+67.6442736*T-45.11105*T*LN(T)
     -.016095035*T**2+2.90117167E-06*T**3+212888.2*T**(-1);  8.00000E+02  Y
      -208337.344+178.095443*T-61.93533*T*LN(T)-1.05714E-04*T**2
     +3.98789667E-09*T**3+970284*T**(-1);  3.00000E+03  N !
 FUNCTION F623T      298.15  +480383.542-1.58706566*T-36.90579*T*LN(T)
     -7.56815E-04*T**2-1.31040183E-07*T**3+16498.85*T**(-1);  1.60000E+03  Y
      +484703.82-58.8210679*T-28.53999*T*LN(T)-.00618347*T**2
     +4.55704333E-07*T**3;  3.10000E+03  Y
      +399551.917+333.52963*T-78.48514*T*LN(T)+.006619755*T**2
     -1.5106045E-07*T**3+26673440*T**(-1);  3.80000E+03  N !
 FUNCTION F768T      298.15  -201660.825+80.9385369*T-49.25823*T*LN(T)
     -.012061425*T**2+2.14597333E-06*T**3+130925.75*T**(-1);  8.00000E+02  Y
      -208004.473+165.926016*T-62.16169*T*LN(T)-3.72899E-05*T**2
     +1.19899483E-09*T**3+738957*T**(-1);  6000.0  N !
 FUNCTION F776T      298.15  -494047.79-72.1054899*T-23.89169*T*LN(T)
     -.0621397*T**2+1.29213783E-05*T**3+78100*T**(-1);  6.00000E+02  Y
      -514422.654+254.039684*T-74.96724*T*LN(T)-.0042506095*T**2
     +4.18842167E-07*T**3+1628653.5*T**(-1);  1.50000E+03  Y
      -521272.731+311.4317*T-82.99675*T*LN(T)-2.4276615E-05*T**2
     +7.14432E-10*T**3+2748177*T**(-1);  6000.0  N !
 FUNCTION F802T      298.15  -575903.151+252.49861*T-82.26331*T*LN(T)
     -.025448955*T**2+4.17391E-06*T**3+366776.4*T**(-1);  8.00000E+02  Y
      -591324.268+447.940009*T-111.611*T*LN(T)-1.2771895E-04*T**2
     +4.43587833E-09*T**3+1918382*T**(-1);  6000.0  N !
 FUNCTION F10105T    298.15  +401732.827+37.9381886*T-32.861*T*LN(T)
     +.00908265*T**2-1.34845667E-06*T**3+108791.4*T**(-1);  9.00000E+02  Y
      +410335.744-51.7107058*T-19.84276*T*LN(T)+6.959445E-05*T**2
     -1.30682983E-07*T**3-976411.5*T**(-1);  2.40000E+03  Y
      +406591.004-47.1975307*T-20.12513*T*LN(T)-5.66549E-04*T**2
     -5.290265E-08*T**3+887592*T**(-1);  5.50000E+03  Y
      +518056.742-373.01803*T+18.70844*T*LN(T)-.00634452*T**2
     +1.038655E-07*T**3-55487750*T**(-1);  1.00000E+04  N !
 FUNCTION F10173T    298.15  +247269.947-13.1139445*T-32.67*T*LN(T)
     -.0075012*T**2+1.18220167E-06*T**3-34235*T**(-1);  9.00000E+02  Y
      +240957.695+66.2179313*T-44.511*T*LN(T)+.00209225*T**2
     -2.42841667E-07*T**3+572515*T**(-1);  2.80000E+03  Y
      +309524.921-212.054229*T-9.622001*T*LN(T)-.00601295*T**2
     +1.2057E-07*T**3-25282085*T**(-1);  5.80000E+03  Y
      +485837.27-638.31461*T+40.074*T*LN(T)-.01226245*T**2
     +2.68271667E-07*T**3-1.4323085E+08*T**(-1);  6000.0  N !
 FUNCTION F10179T    298.15  +58475.2387-2.12934624*T-37.569*T*LN(T)
     -.01894785*T**2+3.36232667E-06*T**3+205940*T**(-1);  7.00000E+02  Y
      +48666.2154+131.021135*T-57.802*T*LN(T)-7.83E-05*T**2
     +2.57666667E-09*T**3+1111465*T**(-1);  6000.0  N !
 FUNCTION F10240T    298.15  +496936.137+167.757207*T-48.04721*T*LN(T)
     +.0045131445*T**2-1.38132583E-06*T**3+1236257.5*T**(-1);  1.10000E+03  Y
      +413625.937+278.684005*T-57.36458*T*LN(T)+7.8394E-05*T**2
     +3.40843667E-07*T**3+40989960.5*T**(-1);  2.50000E+03  Y
      +457326.556+298.173624*T-62.41141*T*LN(T)+.00532538*T**2
     -1.30827917E-07*T**3-6839750*T**(-1);  6000.0  N !
 FUNCTION F13634T    298.15  +243206.494-20.8612587*T-21.01555*T*LN(T)
     +1.2687055E-04*T**2-1.23131283E-08*T**3-42897.09*T**(-1);  2.95000E+03  
     Y
      +252301.423-52.0847285*T-17.21188*T*LN(T)-5.413565E-04*T**2
     +7.64520667E-09*T**3-3973170.5*T**(-1);  6000.0  N !
 FUNCTION F14003T    298.15  -6960.69252-51.1831473*T-22.25862*T*LN(T)
     -.01023867*T**2+1.339947E-06*T**3-76749.55*T**(-1);  9.00000E+02  Y
      -13136.0172+24.743296*T-33.55726*T*LN(T)-.0012348985*T**2
     +1.66943333E-08*T**3+539886*T**(-1);  3.70000E+03  Y
      +14154.6461-51.4854586*T-24.47978*T*LN(T)-.002634759*T**2
     +6.01544333E-08*T**3-15120935*T**(-1);  9.60000E+03  Y
      -314316.628+515.068037*T-87.56143*T*LN(T)+.0025787245*T**2
     -1.878765E-08*T**3+2.9052515E+08*T**(-1);  1.85000E+04  Y
      -108797.175+288.483019*T-63.737*T*LN(T)+.0014375*T**2-9E-09*T**3
     +.25153895*T**(-1);  2.00000E+04  N !
 FUNCTION F14300T    298.15  +130696.944-37.9096651*T-27.58118*T*LN(T)
     -.02763076*T**2+4.60539333E-06*T**3+99530.45*T**(-1);  7.00000E+02  Y
      +114760.623+176.626736*T-60.10286*T*LN(T)+.00206456*T**2
     -5.17486667E-07*T**3+1572175*T**(-1);  1.30000E+03  Y
      +49468.3958+710.094819*T-134.3696*T*LN(T)+.039707355*T**2
     -4.10457667E-06*T**3+12362250*T**(-1);  2.10000E+03  Y
      +866367.075-3566.80563*T+421.2001*T*LN(T)-.1284109*T**2
     +5.44768833E-06*T**3-2.1304835E+08*T**(-1);  2.80000E+03  Y
      +409416.384-1950.70834*T+223.4437*T*LN(T)-.0922361*T**2
     +4.306855E-06*T**3-21589870*T**(-1);  3.50000E+03  Y
      -1866338.6+6101.13383*T-764.8435*T*LN(T)+.09852775*T**2
     -2.59784667E-06*T**3+9.610855E+08*T**(-1);  4.90000E+03  Y
      +97590.0432+890.79836*T-149.9608*T*LN(T)+.01283575*T**2
     -3.555105E-07*T**3-2.1699975E+08*T**(-1);  6000.0  N !
 FUNCTION F700T      298.15  -2038876.81+959.91444*T-155.3938*T*LN(T)
     -.013075*T**2+1566908*T**(-1);  2.05300E+03  N !
 FUNCTION F787T      298.15  -1699084.53+463.030133*T-69.46026*T*LN(T)
     -.0695571*T**2+1.4647905E-05*T**3+966159*T**(-1);  6.00000E+02  Y
      -1717152.63+779.276539*T-119.736*T*LN(T)-.00744798*T**2
     +2.87318833E-07*T**3+2183608.5*T**(-1);  1.50000E+03  Y
      -1765472.13+1084.73224*T-160.4551*T*LN(T)+.007211335*T**2
     -6.42760667E-07*T**3+12643315*T**(-1);  2.30800E+03  N !
 FUNCTION F792T      298.15  -1689981.34+469.457943*T-70.54517*T*LN(T)
     -.0707939*T**2+1.491345E-05*T**3+981167*T**(-1);  6.00000E+02  Y
      -1708394.01+791.595033*T-121.7544*T*LN(T)-.007546725*T**2
     +2.89573167E-07*T**3+2222750*T**(-1);  1.50000E+03  Y
      -1758865.4+1110.41949*T-164.253*T*LN(T)+.007753035*T**2
     -6.82469667E-07*T**3+13162740*T**(-1);  2.29000E+03  N !
 FUNCTION F797T      298.15  -1694673.42+456.64816*T-69.0088*T*LN(T)
     -.0688841*T**2+1.44969317E-05*T**3+960094*T**(-1);  6.00000E+02  Y
      -1712611.55+770.32884*T-118.8687*T*LN(T)-.00734585*T**2
     +2.796585E-07*T**3+2170324.5*T**(-1);  1.50000E+03  Y
      -1760866.16+1075.07673*T-159.4861*T*LN(T)+.007252735*T**2
     -6.44151167E-07*T**3+12625030*T**(-1);  2.31200E+03  N !
 FUNCTION F781T      298.15  -1707353.3+448.021203*T-67.48039*T*LN(T)
     -.06746995*T**2+1.42054467E-05*T**3+938781*T**(-1);  6.00000E+02  Y
      -1724888.03+754.856078*T-116.2579*T*LN(T)-.007225685*T**2
     +2.78531667E-07*T**3+2120702*T**(-1);  1.50000E+03  Y
      -1772165.63+1053.45681*T-156.0582*T*LN(T)+.007091065*T**2
     -6.29401833E-07*T**3+12366670*T**(-1);  2.32700E+03  Y
      -1868789.09+1392.58608*T-192.464*T*LN(T);  4.00000E+03  N !
 FUNCTION F142T      298.15  -7976.15095+137.093054*T-24.3672*T*LN(T)
     -.001884662*T**2-8.77663667E-07*T**3+74092.35*T**(-1);  7.00000E+02  Y
      -11276.2396+223.048449*T-38.58443*T*LN(T)+.01853198*T**2
     -5.76422667E-06*T**3+74092.35*T**(-1);  9.33400E+02  Y
      -11507.187+188.904759*T-31.74819*T*LN(T);  2.90000E+03  N !
 FUNCTION F10170T    298.15  -292304.954+332.506251*T-58.508*T*LN(T)
     +.00435465*T**2-1.51982667E-06*T**3+323095*T**(-1);  1.65000E+03  Y
      -306106.137+415.840209*T-68.2*T*LN(T)-15*T**(-1);  3.00000E+03  N !
 FUNCTION F10270T    298.15  -847288.445+691.541902*T-113.641*T*LN(T)
     -.02191185*T**2-1.27666667E-09*T**3+813725*T**(-1);  1.00000E+03  N !
 FUNCTION F10272T    298.15  -877405.917+885.09611*T-143.718*T*LN(T)
     +.01841615*T**2-1.20420333E-05*T**3+1573510*T**(-1);  7.00000E+02  Y
      -1111615.16+4131.10513*T-638.059*T*LN(T)+.48202345*T**2
     -9.35382167E-05*T**3+22374620*T**(-1);  9.55000E+02  Y
      +3.27006633E+09-34689515*T+5041690*T*LN(T)-3454.0955*T**2
     +.4437025*T**3-3.978962E+11*T**(-1);  9.70000E+02  Y
      +23531923.1-239873.228*T+34422.16*T*LN(T)-21.754045*T**2
     +.00256640667*T**3-3.228093E+09*T**(-1);  1.05000E+03  Y
      -812640.026+424.887189*T-80.37801*T*LN(T)-.02791235*T**2
     +2.06075667E-06*T**3-8342755*T**(-1);  1.81200E+03  Y
      -908058.175+1066.04422*T-165*T*LN(T);  4.00000E+03  N !
 FUNCTION F10092T    298.15  +1225.7335+124.133669*T-23.5143*T*LN(T)
     -.00439752*T**2-5.89269E-08*T**3+77358.5*T**(-1);  1.18480E+03  Y
      -1249.64032+133.270633*T-24.6643*T*LN(T)-.00375752*T**2
     -5.89269E-08*T**3+77358.5*T**(-1);  1.66750E+03  Y
      -613.083946+125.483901*T-23.5143*T*LN(T)-.00439752*T**2
     -5.89269E-08*T**3+77358.5*T**(-1);  1.81100E+03  Y
      -25628.1272+299.878718*T-46*T*LN(T);  6000.0  N !
 FUNCTION F10299T    298.15  -1163383.29+613.642203*T-104.502*T*LN(T)
     -.0885768*T**2-2.12787833E-06*T**3+498705*T**(-1);  9.00000E+02  Y
      -1.87688112E+09+21072487.4*T-3092834*T*LN(T)+2265.38*T**2
     -.311026333*T**3+2.1321835E+11*T**(-1);  9.20000E+02  Y
      +84841141.2-915108.031*T+133080.9*T*LN(T)-91.8423*T**2
     +.0118721917*T**3-1.0414835E+10*T**(-1);  9.70000E+02  Y
      +2112277.84-29721.0904*T+4203.302*T*LN(T)-2.621552*T**2
     +2.92221667E-04*T**3-4.5878255E+08*T**(-1);  1.10000E+03  Y
      -1165334.32+1145.99464*T-193.693*T*LN(T)-.00325635*T**2
     +2.7627E-07*T**3-1239335*T**(-1);  1.70000E+03  N !
 FUNCTION F10089T    298.15  -284454.832+328.485604*T-57.49*T*LN(T)
     +.00488095*T**2-1.52004333E-06*T**3+323120*T**(-1);  1.65000E+03  Y
      -301366.59+422.114457*T-68.2*T*LN(T)-15*T**(-1);  3.00000E+03  N !
	  
	  
	  
 FUNCTION GHSERAL    298.15  -7976.15+137.093038*T-24.3671976*T*LN(T)
     -.001884662*T**2-8.77664E-07*T**3+74092*T**(-1);  7.00000E+02  Y
      -11276.24+223.048446*T-38.5844296*T*LN(T)+.018531982*T**2
     -5.764227E-06*T**3+74092*T**(-1);  9.33470E+02  Y
      -11278.378+188.684153*T-31.748192*T*LN(T)-1.230524E+28*T**(-9);  
     2.90000E+03  N !
 FUNCTION GHSERFE    298.15  +1225.7+124.134*T-23.5143*T*LN(T)
     -.00439752*T**2-5.8927E-08*T**3+77359*T**(-1);  1.81100E+03  Y
      -25383.581+299.31255*T-46*T*LN(T)+2.29603E+31*T**(-9);  6000.0  N 
     !
 FUNCTION GO2GAS     298.15  -6961.74451-76729.7484*T**(-1)
     -51.0057202*T-22.2710136*T*LN(T)-.0101977469*T**2+1.32369208E-06*T**3;  
     1.00000E+03  Y
      -13137.5203+525809.556*T**(-1)+25.3200332*T-33.627603*T*LN(T)
     -.00119159274*T**2+1.35611111E-08*T**3;  3000.0  Y
      -27973.4908+8766421.4*T**(-1)+62.5195726*T-37.9072074*T*LN(T)
     -8.50483772E-04*T**2+2.14409777E-08*T**3;  6000.0  N !
 FUNCTION GOSOL      298.15  +.5*GO2GAS+65*T;   6000.0   N !
 FUNCTION GBCCAL     298.15  +10083-4.813*T+GHSERAL;   6000.0   N 
     !
 FUNCTION L0ALFE     298.15  -30740+7.9972*T;   6000.0   N !
 FUNCTION L1ALFE     298.15  386.15;   6000.0   N !
 FUNCTION GFEFCC     298.15  -1462.4+8.282*T-1.15*T*LN(T)+6.4E-04*T**2
     +GHSERFE;  1.81100E+03  Y
      -1713.815+.94001*T+4.9251E+30*T**(-9)+GHSERFE;  6000.0  N !
 FUNCTION GHFEFCC    298.15  -236.7+132.416*T-24.6643*T*LN(T)
     -.00375752*T**2-5.8927E-08*T**3+77359*T**(-1);  1.81100E+03  Y
      -27097.3963+300.252559*T-46*T*LN(T)+2.78854E+31*T**(-9);  6000.0  
     N !
 FUNCTION UN_ASS 298.15 0; 300 N !
 
 TYPE_DEFINITION % SEQ *!
 DEFINE_SYSTEM_DEFAULT ELEMENT 2 !
 DEFAULT_COMMAND DEF_SYS_ELEMENT VA /- !


$$$$$$$$$$$$$$$$$$$$$$$$$$$$$$$$$$$$$$$$$$$$$$$$$$$$$$$$$$$$$$$$$$$$$$$$$$$$$$
$--GAS-----------------------------------------------------------------------$
$$$$$$$$$$$$$$$$$$$$$$$$$$$$$$$$$$$$$$$$$$$$$$$$$$$$$$$$$$$$$$$$$$$$$$$$$$$$$$
 
 PHASE GAS:G %  1  1.0  !
    CONSTITUENT GAS:G :AL,AL1O1,AL1O2,AL2,AL2O,AL2O1,AL2O2,AL2O3,ALO,ALO2,FE,
    FE1O1,FE1O2,FE2,O,O2,O3 :  !

   PARAMETER G(GAS,AL;0)  298.15  +F162T+R*T*LN(1E-05*P);   
  6000.0   N REF191 !
   PARAMETER G(GAS,AL1O1;0)  298.15  +F577T+R*T*LN(1E-05*P);   
  6000.0   N REF411 !
   PARAMETER G(GAS,AL1O2;0)  298.15  +F587T+R*T*LN(1E-05*P);   
  6000.0   N REF416 !
   PARAMETER G(GAS,AL2;0)  298.15  +F623T+R*T*LN(1E-05*P);   
  6000.0   N REF447 !
   PARAMETER G(GAS,AL2O1;0)  298.15  +F768T+R*T*LN(1E-05*P);   
  6000.0   N REF589 !
   PARAMETER G(GAS,AL2O2;0)  298.15  +F776T+R*T*LN(1E-05*P);   
  6000.0   N REF595 !
   PARAMETER G(GAS,AL2O3;0)  298.15  +F802T+R*T*LN(1E-05*P);   
  6000.0   N REF615 !
   PARAMETER G(GAS,FE;0)  298.15  +F10105T+R*T*LN(1E-05*P);   
  6000.0   N REF5818 !
   PARAMETER G(GAS,FE1O1;0)  298.15  +F10173T+R*T*LN(1E-05*P);   
  6000.0   N REF5869 !
   PARAMETER G(GAS,FE1O2;0)  298.15  +F10179T+R*T*LN(1E-05*P);   
  6000.0   N REF5871 !
   PARAMETER G(GAS,FE2;0)  298.15  +F10240T+R*T*LN(1E-05*P);   
  6000.0   N REF5927 !
   PARAMETER G(GAS,O;0)  298.15  +F13634T+R*T*LN(1E-05*P);   
  6000.0   N REF7934 !
   PARAMETER G(GAS,O2;0)  298.15  +F14003T+R*T*LN(1E-05*P);   
  6000.0   N REF8065 !
   PARAMETER G(GAS,O3;0)  298.15  +F14300T+R*T*LN(1E-05*P);   
  6000.0   N REF8221 !

$$$$$$$$$$$$$$$$$$$$$$$$$$$$$$$$$$$$$$$$$$$$$$$$$$$$$$$$$$$$$$$$$$$$$$$$$$$$$$
$--LIQUID FUNCS--------------------------------------------------------------$
$$$$$$$$$$$$$$$$$$$$$$$$$$$$$$$$$$$$$$$$$$$$$$$$$$$$$$$$$$$$$$$$$$$$$$$$$$$$$$

 FUNCTION GAL2O3_L   2.98140E+02  -1607850.8+405.559491*T-67.4804*T*LN(T)
     -.06747*T**2+1.4205433E-05*T**3+938780*T**(-1);  6.00000E+02  Y
      -1625385.57+712.394972*T-116.258*T*LN(T)-.0072257*T**2
     +2.78532E-07*T**3+2120700*T**(-1);  1.50000E+03  Y
      -1672662.69+1010.9932*T-156.058*T*LN(T)+.00709105*T**2
     -6.29402E-07*T**3+12366650*T**(-1);  1.91200E+03  Y
      +29178041.6-168360.926*T+21987.1791*T*LN(T)-6.99552951*T**2
     +4.10226192E-04*T**3-7.98843618E+09*T**(-1);  2.32700E+03  Y
      -1757702.05+1344.84833*T-192.464*T*LN(T);  4.00000E+03  N !
 FUNCTION GFEOLIQ    298.15  -137252+224.641*T-37.1815*T*LN(T);  
     3000.0  N !
 FUNCTION GLIQAL     298.15  +11005.029-11.841867*T+7.934E-20*T**7
     +GHSERAL;  9.33470E+02  Y
      +10482.382-11.253974*T+1.231E+28*T**(-9)+GHSERAL;  6000.0  N !
$ FUNCTION GHSERFE    298.15  +1225.7+124.134*T-23.5143*T*LN(T)
$     -.00439752*T**2-5.8927E-08*T**3+77359*T**(-1);  1.81100E+03  Y
$      -25383.581+299.31255*T-46*T*LN(T)+2.29603E+31*T**(-9);  6000.0  N 
$     !
$ FUNCTION GHSERAL    298.15  -7976.15+137.093038*T-24.3671976*T*LN(T)
$     -.001884662*T**2-8.77664E-07*T**3+74092*T**(-1);  7.00000E+02  Y
$      -11276.24+223.048446*T-38.5844296*T*LN(T)+.018531982*T**2
$     -5.764227E-06*T**3+74092*T**(-1);  9.33470E+02  Y
$      -11278.378+188.684153*T-31.748192*T*LN(T)-1.230524E+28*T**(-9);  
$     2.90000E+03  N !


$$$$$$$$$$$$$$$$$$$$$$$$$$$$$$$$$$$$$$$$$$$$$$$$$$$$$$$$$$$$$$$$$$$$$$$$$$$$$$
$--CORUNDUM FUNCS------------------------------------------------------------$
$$$$$$$$$$$$$$$$$$$$$$$$$$$$$$$$$$$$$$$$$$$$$$$$$$$$$$$$$$$$$$$$$$$$$$$$$$$$$$

 FUNCTION GCORUND    298.15  -1707351.3+448.021092*T-67.4804*T*LN(T)
     -.06747*T**2+1.4205433E-05*T**3+938780*T**(-1);  6.00000E+02  Y
      -1724886.06+754.856573*T-116.258*T*LN(T)-.0072257*T**2
     +2.78532E-07*T**3+2120700*T**(-1);  1.50000E+03  Y
      -1772163.19+1053.4548*T-156.058*T*LN(T)+.00709105*T**2
     -6.29402E-07*T**3+12366650*T**(-1);  3000.0  N !
 FUNCTION GFE2O3     298.15  -858683+827.946*T-137.0089*T*LN(T)
     +1453810*T**(-1);  3000.0  N !

$$$$$$$$$$$$$$$$$$$$$$$$$$$$$$$$$$$$$$$$$$$$$$$$$$$$$$$$$$$$$$$$$$$$$$$$$$$$$$
$--CORUNDUM------------------------------------------------------------------$
$$$$$$$$$$$$$$$$$$$$$$$$$$$$$$$$$$$$$$$$$$$$$$$$$$$$$$$$$$$$$$$$$$$$$$$$$$$$$$

$ TYPE_DEFINITION ' GES A_P_D CORUNDUM MAGNETIC  -3.0    2.80000E-01 !
 PHASE CORUNDUM:I %  3 2   1   3 !
    CONSTITUENT CORUNDUM:I :AL+3%,FE+2,FE+3 : FE+3,VA% : O-2% :  !
	
$--Al-O--OXIDE	
$$--END-MEMBERS

   PARAMETER G(CORUNDUM,AL+3:VA:O-2;0)  298.15  +GCORUND;   
  6000.0   N REF598 !
  
$--Fe-O--OXIDE   
$$--END-MEMBERS

   PARAMETER G(CORUNDUM,FE+2:FE+3:O-2;0)  298.15  +GFE2O3+85000;   
  6000.0   N REF3 !
   PARAMETER TC(CORUNDUM,FE+2:FE+3:O-2;0)  298.15  -2867;  3000.0  
  N REF3 !
   PARAMETER BMAGN(CORUNDUM,FE+2:FE+3:O-2;0)  298.15  -25.1;  
  3000.0  N REF3 !
  
   PARAMETER G(CORUNDUM,FE+3:FE+3:O-2;0)  298.15  +GFE2O3+85000;   
  6000.0   N REF3 !
   PARAMETER TC(CORUNDUM,FE+3:FE+3:O-2;0)  298.15  -2867;  3000.0  
  N REF3 !
   PARAMETER BMAGN(CORUNDUM,FE+3:FE+3:O-2;0)  298.15  -25.1;  
  3000.0  N REF3 !  
  
   PARAMETER G(CORUNDUM,FE+2:VA:O-2;0)  298.15  +GFE2O3;   6000.0 
    N REF3 !
   PARAMETER TC(CORUNDUM,FE+2:VA:O-2;0)  298.15  -2867;  3000.0  N 
  REF3 !
   PARAMETER BMAGN(CORUNDUM,FE+2:VA:O-2;0)  298.15  -25.1;  3000.0 
   N REF3 !
   
   PARAMETER G(CORUNDUM,FE+3:VA:O-2;0)  298.15  +GFE2O3;   6000.0 
    N REF3 !
   PARAMETER TC(CORUNDUM,FE+3:VA:O-2;0)  298.15  -2867;  3000.0  N 
  REF3 !
   PARAMETER BMAGN(CORUNDUM,FE+3:VA:O-2;0)  298.15  -25.1;  3000.0 
   N REF3 ! 
 
$--Al-Fe-O--OXIDE
$$--END-MEMBERS

   PARAMETER G(CORUNDUM,AL+3:FE+3:O-2;0)  298.15  +GCORUND+85000;   
  6000.0   N REFLIN !
  
$$--INTERACTIONS
  
   PARAMETER G(CORUNDUM,AL+3,FE+3:VA:O-2;0)  298.15  +110010.11
  -31.780943*T;   6000.0   N REFLIN !
   PARAMETER G(CORUNDUM,AL+3,FE+3:VA:O-2;1)  298.15  25408.249;   
  6000.0   N REFLIN !
   PARAMETER G(CORUNDUM,AL+3,FE+3:VA:O-2;2)  298.15  -65488.58;   
  6000.0   N REFLIN !

$$$$$$$$$$$$$$$$$$$$$$$$$$$$$$$$$$$$$$$$$$$$$$$$$$$$$$$$$$$$$$$$$$$$$$$$$$$$$$
$--HALITE FUNCS--------------------------------------------------------------$
$$$$$$$$$$$$$$$$$$$$$$$$$$$$$$$$$$$$$$$$$$$$$$$$$$$$$$$$$$$$$$$$$$$$$$$$$$$$$$

 FUNCTION GWUSTITE   298.15  -279318+252.848*T-46.12826*T*LN(T)
     -.0057402984*T**2;  3000.0  N !
 FUNCTION AWUSTITE   298.15  -55384+27.888*T;  3000.0  N !
 FUNCTION ZERO       298.15 0.0; 6000.00  N !

$$$$$$$$$$$$$$$$$$$$$$$$$$$$$$$$$$$$$$$$$$$$$$$$$$$$$$$$$$$$$$$$$$$$$$$$$$$$$$
$--HALITE--------------------------------------------------------------------$
$$$$$$$$$$$$$$$$$$$$$$$$$$$$$$$$$$$$$$$$$$$$$$$$$$$$$$$$$$$$$$$$$$$$$$$$$$$$$$

$ TYPE_DEFINITION ) GES A_P_D HALITE MAGNETIC  -3.0    2.80000E-01 !
 PHASE HALITE:I %  2 1   1 !
    CONSTITUENT HALITE:I :AL+3,FE+2,FE+3,VA : O-2:  !

   PARAMETER G(HALITE,VA:O-2;0)  298.15  +ZERO;   6000.0   N REF3 !	
	
$--Al-O--OXIDE
$$--END-MEMBERS  

   PARAMETER G(HALITE,AL+3:O-2;0)  298.15  +50000+.5*GCORUND;   
  6000.0   N REF2 ! 

$--Fe-O--OXIDE
$$--END-MEMBERS   	

   PARAMETER G(HALITE,FE+2:O-2;0)  298.15  +GWUSTITE;   6000.0   
  N REF3 !
   PARAMETER G(HALITE,FE+3:O-2;0)  298.15  +1.25*AWUSTITE
  +1.25*GWUSTITE;   6000.0   N REF3 !
  
$$--INTERACTIONS
  
   PARAMETER G(HALITE,FE+2,FE+3:O-2;0)  298.15  -12324.4;   6000.0 
    N REF3 !
   PARAMETER G(HALITE,FE+2,FE+3:O-2;1)  298.15  20070;   6000.0   
  N REF3 !

$$$$$$$$$$$$$$$$$$$$$$$$$$$$$$$$$$$$$$$$$$$$$$$$$$$$$$$$$$$$$$$$$$$$$$$$$$$$$$
$--SPINEL FUNCS--------------------------------------------------------------$
$$$$$$$$$$$$$$$$$$$$$$$$$$$$$$$$$$$$$$$$$$$$$$$$$$$$$$$$$$$$$$$$$$$$$$$$$$$$$$

 FUNCTION GPP        298.15  +1.5*GFEAL2O4-.5*GF2F2VAB+J23;   
     6000.0   N !
 FUNCTION GF2F3F2B   298.15  +GF2F3VAB+GSPDF2VB;   6000.0   N !
 FUNCTION GF2F3VAB   298.15  +7*GFFB;   6000.0   N !
 FUNCTION GFEAL2O4   298.15  -2038876.81+959.91444*T-155.3938*T*LN(T)
     -.013075*T**2+1566908*T**(-1)+222.11456-1.7470282*T+.0033609*T**2;  
     2053.0  N !
 FUNCTION G3P        298.15  -GF2F3VAB+GF3F3VAB+GFEAL2O4+DG3P3P
     -DG2P3P;   6000.0   N !
 FUNCTION GP2        298.15  +J23+.5*GFEAL2O4+.5*GF2F2VAB+DG2P2P;   
     6000.0   N !
 FUNCTION GFE3O4     298.15  -161731+144.873*T-24.9879*T*LN(T)
     -.0011952256*T**2+206520*T**(-1);  3000.0  N !
 FUNCTION D          298.15  +402520-30.529*T;  6000.0  N !
 FUNCTION JFF     298.15  +46826-27.266*T;  6000.0  N !
 FUNCTION GP3        298.15  +GF2F3VAB+.5*GFEAL2O4+J23-.5*GF2F2VAB
     +DG2P3P;   6000.0   N !
 FUNCTION GPV        298.15  +8*GGAMMA-7.5*GFEAL2O4+2.5*GF2F2VAB
     -5*J23+44.9543481*T;   6000.0   N !
 FUNCTION CFE3O4     298.15  +120730-20.102*T;  3000.0  N !
 FUNCTION GF2F2VAB   298.15  +7*GFFB+JFF;   6000.0   N !
 FUNCTION J23        298.15  +29163.95+7.88*T;   6000.0   N !
 FUNCTION GFFB       298.15  -161731+144.873*T-24.9879*T*LN(T)
     -.0011952256*T**2+206520*T**(-1);   6000.0   N !
 FUNCTION GSPDF2VB   298.15  +2*GFFB+D-JFF;   6000.0   N !
 FUNCTION GF3F3VAB   298.15  +7*GFFB-JFF;   6000.0   N !
 FUNCTION DG3P3P     298.15  +133833.21-52.276862*T;   6000.0   N !
 FUNCTION DG2P3P     298.15 0.0; 6000.00  N !
 FUNCTION DG2P2P     298.15 0.0; 6000.00  N !
 FUNCTION GGAMMA     298.15  -1689977.34+469.458181*T-70.5452*T*LN(T)
     -.070794*T**2+1.491345E-05*T**3+981165*T**(-1);  6.00000E+02  Y
      -1708389.72+791.591946*T-121.754*T*LN(T)-.0075467*T**2
     +2.89573E-07*T**3+2222750*T**(-1);  1500.0  Y
      -1758861.74+1110.41976*T-164.253*T*LN(T)+.00775305*T**2
     -6.8247E-07*T**3+13162750*T**(-1);  3000.0  N !

$$$$$$$$$$$$$$$$$$$$$$$$$$$$$$$$$$$$$$$$$$$$$$$$$$$$$$$$$$$$$$$$$$$$$$$$$$$$$$
$--SPINEL--------------------------------------------------------------------$
$$$$$$$$$$$$$$$$$$$$$$$$$$$$$$$$$$$$$$$$$$$$$$$$$$$$$$$$$$$$$$$$$$$$$$$$$$$$$$

 TYPE_DEFINITION * GES A_P_D SPINEL_B MAGNETIC  -3.0    2.80000E-01 !
 PHASE SPINEL_B:I %*  4 1   2   2   4 !
    CONSTITUENT SPINEL_B:I :AL+3,FE+2%,FE+3 : AL+3,FE+2,FE+3%,VA : FE+2,VA% 
    : O-2% :  !

$--Al-O--OXIDE  

$--Fe-O--OXIDE  
$$--END-MEMBERS

   PARAMETER G(SPINEL_B,FE+2:FE+2:FE+2:O-2;0)  298.15  +9*GFE3O4
  +D;  2053.0  N REF3 !
   PARAMETER BMAGN(SPINEL_B,FE+2:FE+2:FE+2:O-2;0)  298.15  44.54;  
  2053.0  N REF3 !
   PARAMETER TC(SPINEL_B,FE+2:FE+2:FE+2:O-2;0)  298.15  848;  
  2053.0  N REF3 !
  
   PARAMETER G(SPINEL_B,FE+3:FE+2:FE+2:O-2;0)  298.15  +9*GFE3O4
  -JFF+D;  2053.0  N REF3 !
   PARAMETER BMAGN(SPINEL_B,FE+3:FE+2:FE+2:O-2;0)  298.15  44.54;  
  2053.0  N REF3 !
   PARAMETER TC(SPINEL_B,FE+3:FE+2:FE+2:O-2;0)  298.15  848;  
  2053.0  N REF3 !
  
   PARAMETER G(SPINEL_B,FE+2:FE+3:FE+2:O-2;0)  298.15  +9*GFE3O4
  -JFF+D;  2053.0  N REF3 !
   PARAMETER BMAGN(SPINEL_B,FE+2:FE+3:FE+2:O-2;0)  298.15  44.54;  
  2053.0  N REF3 !
   PARAMETER TC(SPINEL_B,FE+2:FE+3:FE+2:O-2;0)  298.15  848;  
  2053.0  N REF3 !
  
   PARAMETER G(SPINEL_B,FE+3:FE+3:FE+2:O-2;0)  298.15  +9*GFE3O4
  -2*JFF+D;  2053.0  N REF3 !
   PARAMETER BMAGN(SPINEL_B,FE+3:FE+3:FE+2:O-2;0)  298.15  44.54;  
  2053.0  N REF3 !
   PARAMETER TC(SPINEL_B,FE+3:FE+3:FE+2:O-2;0)  298.15  848;  
  2053.0  N REF3 !
  
   PARAMETER G(SPINEL_B,FE+2:VA:FE+2:O-2;0)  298.15  +7*GFE3O4-JFF
  +CFE3O4+D;  2053.0  N REF3 !
   PARAMETER BMAGN(SPINEL_B,FE+2:VA:FE+2:O-2;0)  298.15  44.54;  
  2053.0  N REF3 !
   PARAMETER TC(SPINEL_B,FE+2:VA:FE+2:O-2;0)  298.15  848;  2053.0 
   N REF3 !
   
   PARAMETER G(SPINEL_B,FE+3:VA:FE+2:O-2;0)  298.15  +7*GFE3O4
  -2*JFF+CFE3O4+D;  2053.0  N REF3 !
   PARAMETER BMAGN(SPINEL_B,FE+3:VA:FE+2:O-2;0)  298.15  44.54;  
  2053.0  N REF3 !
   PARAMETER TC(SPINEL_B,FE+3:VA:FE+2:O-2;0)  298.15  848;  2053.0 
   N REF3 !  
   
   PARAMETER G(SPINEL_B,FE+2:FE+2:VA:O-2;0)  298.15  +7*GFE3O4+JFF;
    2053.0  N REF3 !
   PARAMETER BMAGN(SPINEL_B,FE+2:FE+2:VA:O-2;0)  298.15  44.54;  
  2053.0  N REF3 !
   PARAMETER TC(SPINEL_B,FE+2:FE+2:VA:O-2;0)  298.15  848;  2053.0 
   N REF3 !
   
   PARAMETER G(SPINEL_B,FE+3:FE+2:VA:O-2;0)  298.15  +7*GFE3O4;  
  2053.0  N REF3 !
   PARAMETER BMAGN(SPINEL_B,FE+3:FE+2:VA:O-2;0)  298.15  44.54;  
  2053.0  N REF3 !
   PARAMETER TC(SPINEL_B,FE+3:FE+2:VA:O-2;0)  298.15  848;  2053.0 
   N REF3 !
   
   PARAMETER G(SPINEL_B,FE+2:FE+3:VA:O-2;0)  298.15  +7*GFE3O4;  
  2053.0  N REF3 !
   PARAMETER BMAGN(SPINEL_B,FE+2:FE+3:VA:O-2;0)  298.15  44.54;  
  2053.0  N REF3 !
   PARAMETER TC(SPINEL_B,FE+2:FE+3:VA:O-2;0)  298.15  848;  2053.0 
   N REF3 !
   
   PARAMETER G(SPINEL_B,FE+3:FE+3:VA:O-2;0)  298.15  +7*GFE3O4-JFF;
    2053.0  N REF3 !
   PARAMETER BMAGN(SPINEL_B,FE+3:FE+3:VA:O-2;0)  298.15  44.54;  
  2053.0  N REF3 !
   PARAMETER TC(SPINEL_B,FE+3:FE+3:VA:O-2;0)  298.15  848;  2053.0 
   N REF3 !
   
   PARAMETER G(SPINEL_B,FE+2:VA:VA:O-2;0)  298.15  +5*GFE3O4+CFE3O4;  
  2053.0  N REF3 !
   PARAMETER BMAGN(SPINEL_B,FE+2:VA:VA:O-2;0)  298.15  44.54;  
  2053.0  N REF3 !
   PARAMETER TC(SPINEL_B,FE+2:VA:VA:O-2;0)  298.15  848;  2053.0  
  N REF3 !
  
   PARAMETER G(SPINEL_B,FE+3:VA:VA:O-2;0)  298.15  +5*GFE3O4-JFF
  +CFE3O4;  2053.0  N REF3 !
   PARAMETER BMAGN(SPINEL_B,FE+3:VA:VA:O-2;0)  298.15  44.54;  
  2053.0  N REF3 !
   PARAMETER TC(SPINEL_B,FE+3:VA:VA:O-2;0)  298.15  848;  2053.0  
  N REF3 !
  
$--Al-Fe-O--OXIDE
$$--END-MEMBERS
	
   PARAMETER G(SPINEL_B,AL+3:AL+3:FE+2:O-2;0)  298.15  +GPP+GF2F3F2B
  -GF2F3VAB;  2053.0  N REFLIN !
   PARAMETER G(SPINEL_B,FE+2:AL+3:FE+2:O-2;0)  298.15  +GFEAL2O4
  +GF2F3F2B-GF2F3VAB;  2053.0  N REFLIN !
   PARAMETER G(SPINEL_B,FE+3:AL+3:FE+2:O-2;0)  298.15  +G3P+GF2F3F2B
  -GF2F3VAB;  2053.0  N REFLIN !
   PARAMETER G(SPINEL_B,AL+3:FE+2:FE+2:O-2;0)  298.15  +GP2+GF2F3F2B
  -GF2F3VAB;  2053.0  N REFLIN !
   PARAMETER G(SPINEL_B,AL+3:FE+3:FE+2:O-2;0)  298.15  +GP3+GF2F3F2B
  -GF2F3VAB;  2053.0  N REFLIN !
   PARAMETER G(SPINEL_B,AL+3:VA:FE+2:O-2;0)  298.15  +GPV+GF2F3F2B
  -GF2F3VAB;  2053.0  N REFLIN !
   PARAMETER G(SPINEL_B,AL+3:AL+3:VA:O-2;0)  298.15  +GPP;  
  2053.0  N REFLIN !
   PARAMETER G(SPINEL_B,FE+2:AL+3:VA:O-2;0)  298.15  +GFEAL2O4;  
  2053.0  N REF500 !
   PARAMETER G(SPINEL_B,FE+3:AL+3:VA:O-2;0)  298.15  +G3P;  
  2053.0  N REFLIN !
   PARAMETER G(SPINEL_B,AL+3:FE+2:VA:O-2;0)  298.15  +GP2;  
  2053.0  N REFLIN !
   PARAMETER G(SPINEL_B,AL+3:FE+3:VA:O-2;0)  298.15  +GP3;  
  2053.0  N REFLIN !
   PARAMETER G(SPINEL_B,AL+3:VA:VA:O-2;0)  298.15  +GPV;  2053.0  
  N REF606 !

$$--INTERACTIONS 

   PARAMETER G(SPINEL_B,FE+2:AL+3,FE+3:VA:O-2;0)  298.15  +16426.656
  -6.4652626*T;  2053.0  N REFLIN !
   PARAMETER G(SPINEL_B,FE+3:AL+3,FE+3:VA:O-2;0)  298.15  -132424.88
  +39.326407*T;  2053.0  N REFLIN !
   PARAMETER G(SPINEL_B,FE+3:AL+3,FE+3:VA:O-2;1)  298.15  -91226.064
  +80.135254*T;  2053.0  N REFLIN !
   PARAMETER G(SPINEL_B,FE+3:AL+3,FE+3:VA:O-2;2)  298.15  -91.207976*T; 
   2053.0  N REFLIN !

$$$$$$$$$$$$$$$$$$$$$$$$$$$$$$$$$$$$$$$$$$$$$$$$$$$$$$$$$$$$$$$$$$$$$$$$$$$$$$
$--ALFEO3 FUNC---------------------------------------------------------------$
$$$$$$$$$$$$$$$$$$$$$$$$$$$$$$$$$$$$$$$$$$$$$$$$$$$$$$$$$$$$$$$$$$$$$$$$$$$$$$

 FUNCTION GALFEO     298.15  -1163720.03+771.9659*T-126.28*T*LN(T)
     -.013681*T**2+1512700*T**(-1)+1.1664E-07*T**3;   6000.0   N !

$$$$$$$$$$$$$$$$$$$$$$$$$$$$$$$$$$$$$$$$$$$$$$$$$$$$$$$$$$$$$$$$$$$$$$$$$$$$$$
$--ALFEO3--------------------------------------------------------------------$
$$$$$$$$$$$$$$$$$$$$$$$$$$$$$$$$$$$$$$$$$$$$$$$$$$$$$$$$$$$$$$$$$$$$$$$$$$$$$$

 PHASE AL1FE1O3  %  3 1   1   3 !
    CONSTITUENT AL1FE1O3  :AL+3 : FE+3 : O-2 :  !

$--Al-Fe-O--OXIDE
$$--END-MEMBERS
	
   PARAMETER G(AL1FE1O3,AL+3:FE+3:O-2;0)  298.15  +GALFEO-120765.33
  +23.2456*T;   6000.0   N REFLIN !

$$$$$$$$$$$$$$$$$$$$$$$$$$$$$$$$$$$$$$$$$$$$$$$$$$$$$$$$$$$$$$$$$$$$$$$$$$$$$