$$$$$$$$$$$$$$$$$$$$$$$$$$$$$$$$$$$$$$$$$$$$$$$$$$$$$$$$$$$$$$$$$$$$$$$$$$$$$$
$ Date: 2016-12-14 15:39
$ Components: AL, NI, VA
$ Phases: AL3NI1, AL3NI2, AL3NI5, BCC_B2, FCC_L12, LIQUID
$ Generated by rotis (pycalphad 0.4.2+61.g2a7ce13.dirty)
$$$$$$$$$$$$$$$$$$$$$$$$$$$$$$$$$$$$$$$$$$$$$$$$$$$$$$$$$$$$$$$$$$$$$$$$$$$$$$

ELEMENT AL BLANK 0 0 0 !
ELEMENT NI BLANK 0 0 0 !
ELEMENT VA BLANK 0 0 0 !

FUNCTION GBCCAL 298.15 -4.813*T + GHSERAL# + 10083; 2900.0 N !
FUNCTION GBCCNI 298.15 -3.556*T + GHSERNI# + 8715.084; 3000.0 N !
FUNCTION GFCCAL 298.15 GHSERAL#; 2900.0 N !
FUNCTION GFCCNI 298.15 GHSERNI#; 3000.0 N !
FUNCTION GHSERAL 298.15 -8.77664E-7*T**3 - 0.001884662*T**2 -
   24.3671976*T*LN(T) + 137.093038*T - 7976.15 + 74092*T**(-1); 700.0 Y
   -5.764227E-6*T**3 + 0.018531982*T**2 - 38.5844296*T*LN(T) + 223.048446*T -
   11276.24 + 74092*T**(-1); 933.47 Y -31.748192*T*LN(T) + 188.684153*T -
   11278.378 - 1.230524E+28*T**(-9); 2900.0 N !
FUNCTION GHSERNI 298.15 -0.0048407*T**2 - 22.096*T*LN(T) + 117.854*T -
   5179.159; 1728.0 Y -43.1*T*LN(T) + 279.135*T - 27840.655 +
   1.12754E+31*T**(-9); 3000.0 N !
FUNCTION GHSERVA 1 0; 10000 N !
FUNCTION GLIQAL 298.15 7.9337E-20*T**7 - 11.841867*T + GHSERAL# + 11005.029;
   700.0 Y 7.9337E-20*T**7 - 11.841867*T + GHSERAL# + 11005.03; 933.47 Y
   -31.748192*T*LN(T) + 177.430178*T - 795.996; 2900.0 N !
FUNCTION GLIQNI 298.15 -3.82318E-21*T**7 - 9.397*T + GHSERNI# + 16414.686;
   1728.0 Y -43.1*T*LN(T) + 268.598*T - 9549.775; 3000.0 N !
FUNCTION VV0000 1 44829.5347002512; 10000 N !
FUNCTION VV0001 1 21083.3819526426; 10000 N !
FUNCTION VV0002 1 -172266.35740234; 10000 N !
FUNCTION VV0003 1 -21505.9578761833; 10000 N !
FUNCTION VV0004 1 0.354592876983304; 10000 N !
FUNCTION VV0005 1 -47332.7755500104; 10000 N !
FUNCTION VV0006 1 1.62618549502645; 10000 N !
FUNCTION VV0007 1 -41810.7541019748; 10000 N !
FUNCTION VV0008 1 -6039.53606796524; 10000 N !
FUNCTION VV0009 1 -0.000224426712081812; 10000 N !
FUNCTION VV0010 1 3.67679761555988E-7; 10000 N !
FUNCTION VV0011 1 0.98863889021688; 10000 N !
FUNCTION VV0012 1 -8.69340819947539; 10000 N !
FUNCTION VV0013 1 -2927.77707586163; 10000 N !
FUNCTION VV0014 1 -536.346451563302; 10000 N !
FUNCTION VV0015 1 5511.98810420907; 10000 N !
FUNCTION VV0016 1 31.9853544423023; 10000 N !
FUNCTION VV0017 1 2751.99998592011; 10000 N !
FUNCTION VV0018 1 3768.00000024449; 10000 N !
FUNCTION VV0019 1 2525.31616310146; 10000 N !
FUNCTION VV0020 1 3125.33; 10000 N !
FUNCTION VV0021 1 -5196.0; 10000 N !
FUNCTION VV0022 1 -2550.0483402143; 10000 N !
FUNCTION VV0023 1 1385.39243202476; 10000 N !
FUNCTION VV0024 1 5122.0; 10000 N !
FUNCTION VV0025 1 -4257289.9378801; 10000 N !
FUNCTION VV0026 1 -38986.7771525212; 10000 N !
FUNCTION VV0027 1 2.65420662533769; 10000 N !
FUNCTION VV0028 1 -56769.0171420757; 10000 N !
FUNCTION VV0029 1 3.01846325747057; 10000 N !
FUNCTION VV0030 1 -64435.3; 10000 N !
FUNCTION VV0031 1 23095.199992201; 10000 N !
FUNCTION VV0032 1 0.0010690375657278; 10000 N !
FUNCTION VV0033 1 8.82128846920494E-8; 10000 N !
FUNCTION VV0034 1 0.00053171740659028; 10000 N !
FUNCTION VV0035 1 0.696676025156; 10000 N !
FUNCTION VV0036 1 16432.5; 10000 N !
FUNCTION VV0037 1 5.15785972911005; 10000 N !
FUNCTION VV0038 1 32790.5999979329; 10000 N !
FUNCTION VV0039 1 45158.3776161547; 10000 N !
FUNCTION VV0040 1 -28577.7054781016; 10000 N !
FUNCTION VV0041 1 -30348.3852118209; 10000 N !
FUNCTION VV0042 1 -150059.187357092; 10000 N !
FUNCTION VV0043 1 41336.6; 10000 N !
FUNCTION VV0044 1 67135.0000000003; 10000 N !
FUNCTION VV0045 1 34418.7999999758; 10000 N !
FUNCTION VV0046 1 -152236.00000115; 10000 N !
FUNCTION VV0047 1 -342965.522247774; 10000 N !
FUNCTION VV0048 1 54.8086813459034; 10000 N !
FUNCTION VV0049 1 987.085683202265; 10000 N !
FUNCTION VV0050 1 77152.5226372817; 10000 N !
FUNCTION VV0051 1 5330.80281318475; 10000 N !

TYPE_DEFINITION % SEQ * !
DEFINE_SYSTEM_DEFAULT ELEMENT 2 !
DEFAULT_COMMAND DEFINE_SYSTEM_ELEMENT VA !

PHASE AL3NI1 %  2 0.75 0.25 !
CONSTITUENT AL3NI1 :AL:NI: !

PHASE AL3NI2 %  3 2 1 2 !
CONSTITUENT AL3NI2 :AL,NI:AL,NI:NI: !

PHASE AL3NI5 %  2 0.375 0.625 !
CONSTITUENT AL3NI5 :AL:NI: !

PHASE BCC_B2 %  3 0.5 0.5 1 !
CONSTITUENT BCC_B2 :AL,NI,VA:AL,NI,VA:VA: !

PHASE FCC_L12 %  5 0.25 0.25 0.25 0.25 1 !
CONSTITUENT FCC_L12 :AL,NI:AL,NI:AL,NI:AL,NI:VA: !

PHASE LIQUID %  1 1 !
CONSTITUENT LIQUID :AL,NI: !



$$$$$$$$$$$$$$$$$$$$$$$$$$$$$$$$$$$$$$$$$$$$$$$$$$$$$$$$$$$$$$$$$$$$$$$$$$$$$$
$                                     AL                                     $
$$$$$$$$$$$$$$$$$$$$$$$$$$$$$$$$$$$$$$$$$$$$$$$$$$$$$$$$$$$$$$$$$$$$$$$$$$$$$$

PARAMETER G(BCC_B2,AL:AL:VA;0) 1 1.0*GBCCAL#; 10000 N !
PARAMETER G(BCC_B2,AL:VA:VA;0) 1 T*VV0037# + 0.5*GHSERAL# + VV0036#; 10000 N !
PARAMETER G(BCC_B2,VA:AL:VA;0) 1 T*VV0037# + 0.5*GHSERAL# + VV0036#; 10000 N !
PARAMETER L(BCC_B2,AL,VA:VA:VA;0) 1 VV0044#; 10000 N !
PARAMETER L(BCC_B2,VA:AL,VA:VA;0) 1 VV0044#; 10000 N !
PARAMETER G(FCC_L12,AL:AL:AL:AL:VA;0) 1 1.0*GFCCAL#; 10000 N !
PARAMETER G(LIQUID,AL;0) 1 GLIQAL#; 10000 N !


$$$$$$$$$$$$$$$$$$$$$$$$$$$$$$$$$$$$$$$$$$$$$$$$$$$$$$$$$$$$$$$$$$$$$$$$$$$$$$
$                                     NI                                     $
$$$$$$$$$$$$$$$$$$$$$$$$$$$$$$$$$$$$$$$$$$$$$$$$$$$$$$$$$$$$$$$$$$$$$$$$$$$$$$

PARAMETER G(AL3NI2,NI:NI:NI;0) 1 5*GHSERNI# + VV0051#; 10000 N !
PARAMETER G(BCC_B2,NI:NI:VA;0) 1 1.0*GBCCNI#; 10000 N !
PARAMETER G(BCC_B2,NI:VA:VA;0) 1 0.5*GHSERNI# + VV0038#; 10000 N !
PARAMETER G(BCC_B2,VA:NI:VA;0) 1 0.5*GHSERNI# + VV0038#; 10000 N !
PARAMETER L(BCC_B2,NI,VA:VA:VA;0) 1 VV0045#; 10000 N !
PARAMETER L(BCC_B2,VA:NI,VA:VA;0) 1 VV0045#; 10000 N !
PARAMETER G(FCC_L12,NI:NI:NI:NI:VA;0) 1 1.0*GFCCNI#; 10000 N !
PARAMETER G(LIQUID,NI;0) 1 GLIQNI#; 10000 N !


$$$$$$$$$$$$$$$$$$$$$$$$$$$$$$$$$$$$$$$$$$$$$$$$$$$$$$$$$$$$$$$$$$$$$$$$$$$$$$
$                                     VA                                     $
$$$$$$$$$$$$$$$$$$$$$$$$$$$$$$$$$$$$$$$$$$$$$$$$$$$$$$$$$$$$$$$$$$$$$$$$$$$$$$

PARAMETER G(BCC_B2,VA:VA:VA;0) 1 0; 10000 N !


$$$$$$$$$$$$$$$$$$$$$$$$$$$$$$$$$$$$$$$$$$$$$$$$$$$$$$$$$$$$$$$$$$$$$$$$$$$$$$
$                                   AL-NI                                    $
$$$$$$$$$$$$$$$$$$$$$$$$$$$$$$$$$$$$$$$$$$$$$$$$$$$$$$$$$$$$$$$$$$$$$$$$$$$$$$

PARAMETER G(AL3NI1,AL:NI;0) 1 T*VV0027# + 0.75*GHSERAL# + 0.25*GHSERNI# +
   VV0026#; 10000 N !
PARAMETER G(AL3NI2,AL:AL:NI;0) 1 T*VV0048# + 3*GHSERAL# + 2*GHSERNI# +
   VV0047#; 10000 N !
PARAMETER G(AL3NI2,AL:NI:NI;0) 1 2*GHSERAL# + 3*GHSERNI# + VV0049#; 10000 N !
PARAMETER G(AL3NI2,NI:AL:NI;0) 1 GHSERAL# + 4*GHSERNI# + VV0050#; 10000 N !
PARAMETER G(AL3NI5,AL:NI;0) 1 T*VV0029# + 0.375*GHSERAL# + 0.625*GHSERNI# +
   VV0028#; 10000 N !
PARAMETER G(BCC_B2,AL:NI:VA;0) 1 T**3*VV0033# + T**2*VV0032# +
   T*VV0034#*LN(T) + T*VV0035# + 0.5*GHSERAL# + 0.5*GHSERNI# + VV0030# +
   VV0031#*T**(-1); 10000 N !
PARAMETER G(BCC_B2,NI:AL:VA;0) 1 T**3*VV0033# + T**2*VV0032# +
   T*VV0034#*LN(T) + T*VV0035# + 0.5*GHSERAL# + 0.5*GHSERNI# + VV0030# +
   VV0031#*T**(-1); 10000 N !
PARAMETER L(BCC_B2,AL:AL,NI:VA;0) 1 VV0039#; 10000 N !
PARAMETER L(BCC_B2,AL:NI,VA:VA;0) 1 VV0040#; 10000 N !
PARAMETER L(BCC_B2,AL,NI:AL:VA;0) 1 VV0039#; 10000 N !
PARAMETER L(BCC_B2,AL,NI:NI:VA;0) 1 VV0041#; 10000 N !
PARAMETER L(BCC_B2,AL,NI:VA:VA;0) 1 VV0042#; 10000 N !
PARAMETER L(BCC_B2,AL,VA:NI:VA;0) 1 VV0043#; 10000 N !
PARAMETER L(BCC_B2,NI:AL,NI:VA;0) 1 VV0041#; 10000 N !
PARAMETER L(BCC_B2,NI:AL,VA:VA;0) 1 VV0043#; 10000 N !
PARAMETER L(BCC_B2,NI,VA:AL:VA;0) 1 VV0040#; 10000 N !
PARAMETER L(BCC_B2,VA:AL,NI:VA;0) 1 VV0042#; 10000 N !
PARAMETER L(BCC_B2,AL,NI:AL,NI:VA;0) 1 VV0046#; 10000 N !
PARAMETER G(FCC_L12,AL:AL:AL:NI:VA;0) 1 T*VV0004# + 0.75*GHSERAL# +
   0.25*GHSERNI# + VV0003#; 10000 N !
PARAMETER G(FCC_L12,AL:AL:NI:AL:VA;0) 1 T*VV0004# + 0.75*GHSERAL# +
   0.25*GHSERNI# + VV0003#; 10000 N !
PARAMETER G(FCC_L12,AL:AL:NI:NI:VA;0) 1 T*VV0006# + 0.5*GHSERAL# +
   0.5*GHSERNI# + VV0005#; 10000 N !
PARAMETER G(FCC_L12,AL:NI:AL:AL:VA;0) 1 T*VV0004# + 0.75*GHSERAL# +
   0.25*GHSERNI# + VV0003#; 10000 N !
PARAMETER G(FCC_L12,AL:NI:NI:AL:VA;0) 1 T*VV0006# + 0.5*GHSERAL# +
   0.5*GHSERNI# + VV0005#; 10000 N !
PARAMETER G(FCC_L12,AL:NI:NI:NI:VA;0) 1 T**3*VV0010# + T**2*VV0009# +
   T*VV0011#*LN(T) + T*VV0012# + 0.25*GHSERAL# + 0.75*GHSERNI# + VV0007# +
   VV0008#*T**(-1); 10000 N !
PARAMETER G(FCC_L12,NI:AL:AL:AL:VA;0) 1 T*VV0004# + 0.75*GHSERAL# +
   0.25*GHSERNI# + VV0003#; 10000 N !
PARAMETER G(FCC_L12,NI:AL:AL:NI:VA;0) 1 T*VV0006# + 0.5*GHSERAL# +
   0.5*GHSERNI# + VV0005#; 10000 N !
PARAMETER G(FCC_L12,NI:AL:NI:NI:VA;0) 1 T**3*VV0010# + T**2*VV0009# +
   T*VV0011#*LN(T) + T*VV0012# + 0.25*GHSERAL# + 0.75*GHSERNI# + VV0007# +
   VV0008#*T**(-1); 10000 N !
PARAMETER G(FCC_L12,NI:NI:AL:AL:VA;0) 1 T*VV0006# + 0.5*GHSERAL# +
   0.5*GHSERNI# + VV0005#; 10000 N !
PARAMETER G(FCC_L12,NI:NI:AL:NI:VA;0) 1 T**3*VV0010# + T**2*VV0009# +
   T*VV0011#*LN(T) + T*VV0012# + 0.25*GHSERAL# + 0.75*GHSERNI# + VV0007# +
   VV0008#*T**(-1); 10000 N !
PARAMETER G(FCC_L12,NI:NI:NI:AL:VA;0) 1 T**3*VV0010# + T**2*VV0009# +
   T*VV0011#*LN(T) + T*VV0012# + 0.25*GHSERAL# + 0.75*GHSERNI# + VV0007# +
   VV0008#*T**(-1); 10000 N !
PARAMETER L(FCC_L12,AL:AL:AL:AL,NI:VA;0) 1 VV0015#; 10000 N !
PARAMETER L(FCC_L12,AL:AL:AL:AL,NI:VA;1) 1 VV0014#; 10000 N !
PARAMETER L(FCC_L12,AL:AL:AL:AL,NI:VA;2) 1 VV0013#; 10000 N !
PARAMETER L(FCC_L12,AL:AL:AL,NI:AL:VA;0) 1 VV0015#; 10000 N !
PARAMETER L(FCC_L12,AL:AL:AL,NI:AL:VA;1) 1 VV0014#; 10000 N !
PARAMETER L(FCC_L12,AL:AL:AL,NI:AL:VA;2) 1 VV0013#; 10000 N !
PARAMETER L(FCC_L12,AL:AL:AL,NI:NI:VA;0) 1 VV0018#; 10000 N !
PARAMETER L(FCC_L12,AL:AL:AL,NI:NI:VA;1) 1 VV0017#; 10000 N !
PARAMETER L(FCC_L12,AL:AL:AL,NI:NI:VA;2) 1 VV0016#; 10000 N !
PARAMETER L(FCC_L12,AL:AL,NI:AL:AL:VA;0) 1 VV0015#; 10000 N !
PARAMETER L(FCC_L12,AL:AL,NI:AL:AL:VA;1) 1 VV0014#; 10000 N !
PARAMETER L(FCC_L12,AL:AL,NI:AL:AL:VA;2) 1 VV0013#; 10000 N !
PARAMETER L(FCC_L12,AL:AL,NI:NI:AL:VA;0) 1 VV0018#; 10000 N !
PARAMETER L(FCC_L12,AL:AL,NI:NI:AL:VA;1) 1 VV0017#; 10000 N !
PARAMETER L(FCC_L12,AL:AL,NI:NI:AL:VA;2) 1 VV0016#; 10000 N !
PARAMETER L(FCC_L12,AL:AL,NI:NI:NI:VA;0) 1 VV0021#; 10000 N !
PARAMETER L(FCC_L12,AL:AL,NI:NI:NI:VA;1) 1 VV0020#; 10000 N !
PARAMETER L(FCC_L12,AL:AL,NI:NI:NI:VA;2) 1 VV0019#; 10000 N !
PARAMETER L(FCC_L12,AL,NI:AL:AL:AL:VA;0) 1 VV0015#; 10000 N !
PARAMETER L(FCC_L12,AL,NI:AL:AL:AL:VA;1) 1 VV0014#; 10000 N !
PARAMETER L(FCC_L12,AL,NI:AL:AL:AL:VA;2) 1 VV0013#; 10000 N !
PARAMETER L(FCC_L12,AL,NI:NI:AL:AL:VA;0) 1 VV0018#; 10000 N !
PARAMETER L(FCC_L12,AL,NI:NI:AL:AL:VA;1) 1 VV0017#; 10000 N !
PARAMETER L(FCC_L12,AL,NI:NI:AL:AL:VA;2) 1 VV0016#; 10000 N !
PARAMETER L(FCC_L12,AL,NI:NI:NI:AL:VA;0) 1 VV0021#; 10000 N !
PARAMETER L(FCC_L12,AL,NI:NI:NI:AL:VA;1) 1 VV0020#; 10000 N !
PARAMETER L(FCC_L12,AL,NI:NI:NI:AL:VA;2) 1 VV0019#; 10000 N !
PARAMETER L(FCC_L12,AL,NI:NI:NI:NI:VA;0) 1 VV0024#; 10000 N !
PARAMETER L(FCC_L12,AL,NI:NI:NI:NI:VA;1) 1 VV0023#; 10000 N !
PARAMETER L(FCC_L12,AL,NI:NI:NI:NI:VA;2) 1 VV0022#; 10000 N !
PARAMETER L(FCC_L12,NI:AL:AL:AL,NI:VA;0) 1 VV0018#; 10000 N !
PARAMETER L(FCC_L12,NI:AL:AL:AL,NI:VA;1) 1 VV0017#; 10000 N !
PARAMETER L(FCC_L12,NI:AL:AL:AL,NI:VA;2) 1 VV0016#; 10000 N !
PARAMETER L(FCC_L12,NI:AL:AL,NI:NI:VA;0) 1 VV0021#; 10000 N !
PARAMETER L(FCC_L12,NI:AL:AL,NI:NI:VA;1) 1 VV0020#; 10000 N !
PARAMETER L(FCC_L12,NI:AL:AL,NI:NI:VA;2) 1 VV0019#; 10000 N !
PARAMETER L(FCC_L12,NI:AL,NI:NI:NI:VA;0) 1 VV0024#; 10000 N !
PARAMETER L(FCC_L12,NI:AL,NI:NI:NI:VA;1) 1 VV0023#; 10000 N !
PARAMETER L(FCC_L12,NI:AL,NI:NI:NI:VA;2) 1 VV0022#; 10000 N !
PARAMETER L(FCC_L12,NI:NI:AL:AL,NI:VA;0) 1 VV0021#; 10000 N !
PARAMETER L(FCC_L12,NI:NI:AL:AL,NI:VA;1) 1 VV0020#; 10000 N !
PARAMETER L(FCC_L12,NI:NI:AL:AL,NI:VA;2) 1 VV0019#; 10000 N !
PARAMETER L(FCC_L12,NI:NI:AL,NI:NI:VA;0) 1 VV0024#; 10000 N !
PARAMETER L(FCC_L12,NI:NI:AL,NI:NI:VA;1) 1 VV0023#; 10000 N !
PARAMETER L(FCC_L12,NI:NI:AL,NI:NI:VA;2) 1 VV0022#; 10000 N !
PARAMETER L(FCC_L12,NI:NI:NI:AL,NI:VA;0) 1 VV0024#; 10000 N !
PARAMETER L(FCC_L12,NI:NI:NI:AL,NI:VA;1) 1 VV0023#; 10000 N !
PARAMETER L(FCC_L12,NI:NI:NI:AL,NI:VA;2) 1 VV0022#; 10000 N !
PARAMETER L(FCC_L12,AL,NI:AL,NI:AL,NI:AL,NI:VA;0) 1 VV0025#; 10000 N !
PARAMETER L(LIQUID,AL,NI;0) 1 VV0002#; 10000 N !
PARAMETER L(LIQUID,AL,NI;1) 1 VV0001#; 10000 N !
PARAMETER L(LIQUID,AL,NI;2) 1 VV0000#; 10000 N !