$$$$$$$$$$$$$$$$$$$$$$$$$$$$$$$$$$$$$$$$$$$$$$$$$$$$$$$$$$$$$$$$$$$$$$$$$$$$$$
$ Date: 2016-04-09 00:08
$ Components: AL, NI, VA
$ Phases: AL3NI1, AL3NI2, AL3NI5, BCC_B2, FCC_L12, LIQUID
$ Generated by rotis (pycalphad 0.3.2+32.g27d5e34)
$$$$$$$$$$$$$$$$$$$$$$$$$$$$$$$$$$$$$$$$$$$$$$$$$$$$$$$$$$$$$$$$$$$$$$$$$$$$$$

ELEMENT AL BLANK 0 0 0 !
ELEMENT NI BLANK 0 0 0 !
ELEMENT VA BLANK 0 0 0 !

FUNCTION GBCCAL 298.15 -4.813*T + GHSERAL# + 10083; 2900.0 N !
FUNCTION GBCCNI 298.15 -3.556*T + GHSERNI# + 8715.084; 3000.0 N !
FUNCTION GFCCAL 298.15 GHSERAL#; 2900.0 N !
FUNCTION GFCCNI 298.15 GHSERNI#; 3000.0 N !
FUNCTION GHSERAL 298.15 -8.77664E-7*T**3 - 0.001884662*T**2 -
   24.3671976*T*LN(T) + 137.093038*T - 7976.15 + 74092*T**(-1); 700.0 Y
   -5.764227E-6*T**3 + 0.018531982*T**2 - 38.5844296*T*LN(T) + 223.048446*T -
   11276.24 + 74092*T**(-1); 933.47 Y -31.748192*T*LN(T) + 188.684153*T -
   11278.378 - 1.230524E+28*T**(-9); 2900.0 N !
FUNCTION GHSERNI 298.15 -0.0048407*T**2 - 22.096*T*LN(T) + 117.854*T -
   5179.159; 1728.0 Y -43.1*T*LN(T) + 279.135*T - 27840.655 +
   1.12754E+31*T**(-9); 3000.0 N !
FUNCTION GHSERVA 1 0; 10000 N !
FUNCTION GLIQAL 298.15 7.9337E-20*T**7 - 11.841867*T + GHSERAL# + 11005.029;
   700.0 Y 7.9337E-20*T**7 - 11.841867*T + GHSERAL# + 11005.03; 933.47 Y
   -31.748192*T*LN(T) + 177.430178*T - 795.996; 2900.0 N !
FUNCTION GLIQNI 298.15 -3.82318E-21*T**7 - 9.397*T + GHSERNI# + 16414.686;
   1728.0 Y -43.1*T*LN(T) + 268.598*T - 9549.775; 3000.0 N !
$ Make sure we can still read functions with no "N" at the end
FUN TESTF 298.15 0.0; 6000.00 01DUP !

TYPE_DEFINITION % SEQ * !
DEFINE_SYSTEM_DEFAULT ELEMENT 2 !
DEFAULT_COMMAND DEFINE_SYSTEM_ELEMENT VA !

PHASE AL3NI1 %  2 0.75 0.25 !
CONSTITUENT AL3NI1 :AL:NI: !

PHASE AL3NI2 %  3 3 2 1 !
CONSTITUENT AL3NI2 :AL:AL,NI:NI,VA: !

PHASE AL3NI5 %  2 0.375 0.625 !
CONSTITUENT AL3NI5 :AL:NI: !

PHASE BCC_B2 %  3 0.5 0.5 1 !
CONSTITUENT BCC_B2 :AL,NI,VA:AL,NI,VA:VA: !

PHASE FCC_L12 %  5 0.25 0.25 0.25 0.25 1 !
CONSTITUENT FCC_L12 :AL,NI:AL,NI:AL,NI:AL,NI:VA: !

PHASE LIQUID %  1 1 !
CONSTITUENT LIQUID :AL,NI: !



$$$$$$$$$$$$$$$$$$$$$$$$$$$$$$$$$$$$$$$$$$$$$$$$$$$$$$$$$$$$$$$$$$$$$$$$$$$$$$
$                                     AL                                     $
$$$$$$$$$$$$$$$$$$$$$$$$$$$$$$$$$$$$$$$$$$$$$$$$$$$$$$$$$$$$$$$$$$$$$$$$$$$$$$

PARAMETER G(AL3NI2,AL:AL:VA;0) 1 -2.5*T + 5*GHSERAL# + 25000.0; 10000 N !
PARAMETER G(BCC_B2,AL:AL:VA;0) 1 1.0*GBCCAL#; 10000 N !
PARAMETER G(BCC_B2,AL:VA:VA;0) 1 10.0*T + 0.5*GHSERAL# + 16432.5; 10000 N !
PARAMETER G(BCC_B2,VA:AL:VA;0) 1 10.0*T + 0.5*GHSERAL# + 16432.5; 10000 N !
PARAMETER L(BCC_B2,AL,VA:VA:VA;0) 1 67135.0; 10000 N !
PARAMETER L(BCC_B2,VA:AL,VA:VA;0) 1 67135.0; 10000 N !
PARAMETER G(FCC_L12,AL:AL:AL:AL:VA;0) 1 1.0*GFCCAL#; 10000 N !
PARAMETER G(LIQUID,AL;0) 1 GLIQAL#; 10000 N !


$$$$$$$$$$$$$$$$$$$$$$$$$$$$$$$$$$$$$$$$$$$$$$$$$$$$$$$$$$$$$$$$$$$$$$$$$$$$$$
$                                     NI                                     $
$$$$$$$$$$$$$$$$$$$$$$$$$$$$$$$$$$$$$$$$$$$$$$$$$$$$$$$$$$$$$$$$$$$$$$$$$$$$$$

PARAMETER G(BCC_B2,NI:NI:VA;0) 1 1.0*GBCCNI#; 10000 N !
PARAMETER G(BCC_B2,NI:VA:VA;0) 1 0.5*GHSERNI# + 32790.6; 10000 N !
PARAMETER G(BCC_B2,VA:NI:VA;0) 1 0.5*GHSERNI# + 32790.6; 10000 N !
PARAMETER L(BCC_B2,NI,VA:VA:VA;0) 1 34418.8; 10000 N !
PARAMETER L(BCC_B2,VA:NI,VA:VA;0) 1 34418.8; 10000 N !
PARAMETER G(FCC_L12,NI:NI:NI:NI:VA;0) 1 1.0*GFCCNI#; 10000 N !
PARAMETER G(LIQUID,NI;0) 1 GLIQNI#; 10000 N !


$$$$$$$$$$$$$$$$$$$$$$$$$$$$$$$$$$$$$$$$$$$$$$$$$$$$$$$$$$$$$$$$$$$$$$$$$$$$$$
$                                     VA                                     $
$$$$$$$$$$$$$$$$$$$$$$$$$$$$$$$$$$$$$$$$$$$$$$$$$$$$$$$$$$$$$$$$$$$$$$$$$$$$$$

PARAMETER G(BCC_B2,VA:VA:VA;0) 1 0; 10000 N !


$$$$$$$$$$$$$$$$$$$$$$$$$$$$$$$$$$$$$$$$$$$$$$$$$$$$$$$$$$$$$$$$$$$$$$$$$$$$$$
$                                   AL-NI                                    $
$$$$$$$$$$$$$$$$$$$$$$$$$$$$$$$$$$$$$$$$$$$$$$$$$$$$$$$$$$$$$$$$$$$$$$$$$$$$$$

PARAMETER G(AL3NI1,AL:NI;0) 1 3.2538*T + 0.75*GHSERAL# + 0.25*GHSERNI# -
   39656.1; 10000 N !
PARAMETER G(AL3NI2,AL:AL:NI;0) 1 2.32722*T + 5*GHSERAL# + GHSERNI# - 32826.0;
   10000 N !
PARAMETER G(AL3NI2,AL:NI:NI;0) 1 60.669*T + 3*GHSERAL# + 3*GHSERNI# -
   356448.0; 10000 N !
PARAMETER G(AL3NI2,AL:NI:VA;0) 1 55.52*T + 3*GHSERAL# + 2*GHSERNI# -
   298627.0; 10000 N !
PARAMETER L(AL3NI2,AL:AL:NI,VA;0) 1 -22660.0; 10000 N !
PARAMETER L(AL3NI2,AL:AL:NI,VA;1) 1 -10.6667; 10000 N !
PARAMETER L(AL3NI2,AL:AL:NI,VA;2) 1 10.6667; 10000 N !
PARAMETER L(AL3NI2,AL:AL,NI:NI;0) 1 -39696.0; 10000 N !
PARAMETER L(AL3NI2,AL:AL,NI:NI;1) 1 7.44649E-12; 10000 N !
PARAMETER L(AL3NI2,AL:AL,NI:NI;2) 1 -64.0; 10000 N !
PARAMETER L(AL3NI2,AL:AL,NI:VA;0) 1 -39700.0; 10000 N !
PARAMETER L(AL3NI2,AL:AL,NI:VA;1) 1 3.09086E-12; 10000 N !
PARAMETER L(AL3NI2,AL:AL,NI:VA;2) 1 -26.6667; 10000 N !
PARAMETER L(AL3NI2,AL:NI:NI,VA;0) 1 -22660.0; 10000 N !
PARAMETER L(AL3NI2,AL:NI:NI,VA;1) 1 -10.6667; 10000 N !
PARAMETER L(AL3NI2,AL:NI:NI,VA;2) 1 10.6667; 10000 N !
PARAMETER G(AL3NI5,AL:NI;0) 1 5.392*T + 0.375*GHSERAL# + 0.625*GHSERNI# -
   55383.5; 10000 N !
PARAMETER G(BCC_B2,AL:NI:VA;0) 1 9.52839E-8*T**3 + 0.00123463*T**2 +
   0.000871897*T*LN(T) + 1.31471*T + 0.5*GHSERAL# + 0.5*GHSERNI# - 64435.3 +
   23095.2*T**(-1); 10000 N !
PARAMETER G(BCC_B2,NI:AL:VA;0) 1 9.52839E-8*T**3 + 0.00123463*T**2 +
   0.000871897*T*LN(T) + 1.31471*T + 0.5*GHSERAL# + 0.5*GHSERNI# - 64435.3 +
   23095.2*T**(-1); 10000 N !
PARAMETER L(BCC_B2,AL:AL,NI:VA;0) 1 45262.9; 10000 N !
PARAMETER L(BCC_B2,AL:NI,VA:VA;0) 1 -28577.7; 10000 N !
PARAMETER L(BCC_B2,AL,NI:AL:VA;0) 1 45262.9; 10000 N !
PARAMETER L(BCC_B2,AL,NI:NI:VA;0) 1 -20275.1; 10000 N !
PARAMETER L(BCC_B2,AL,NI:VA:VA;0) 1 -150055.0; 10000 N !
PARAMETER L(BCC_B2,AL,VA:NI:VA;0) 1 41335.6; 10000 N !
PARAMETER L(BCC_B2,NI:AL,NI:VA;0) 1 -20275.1; 10000 N !
PARAMETER L(BCC_B2,NI:AL,VA:VA;0) 1 41335.6; 10000 N !
PARAMETER L(BCC_B2,NI,VA:AL:VA;0) 1 -28577.7; 10000 N !
PARAMETER L(BCC_B2,VA:AL,NI:VA;0) 1 -150055.0; 10000 N !
PARAMETER L(BCC_B2,AL,NI:AL,NI:VA;0) 1 -152236.0; 10000 N !
PARAMETER G(FCC_L12,AL:AL:AL:NI:VA;0) 1 0.55316*T + 0.75*GHSERAL# +
   0.25*GHSERNI# - 21524.2; 10000 N !
PARAMETER G(FCC_L12,AL:AL:NI:AL:VA;0) 1 0.55316*T + 0.75*GHSERAL# +
   0.25*GHSERNI# - 21524.2; 10000 N !
PARAMETER G(FCC_L12,AL:AL:NI:NI:VA;0) 1 1.10633*T + 0.5*GHSERAL# +
   0.5*GHSERNI# - 57350.5; 10000 N !
PARAMETER G(FCC_L12,AL:NI:AL:AL:VA;0) 1 0.55316*T + 0.75*GHSERAL# +
   0.25*GHSERNI# - 21524.2; 10000 N !
PARAMETER G(FCC_L12,AL:NI:NI:AL:VA;0) 1 1.10633*T + 0.5*GHSERAL# +
   0.5*GHSERNI# - 57350.5; 10000 N !
PARAMETER G(FCC_L12,AL:NI:NI:NI:VA;0) 1 3.13447E-7*T**3 - 0.000436214*T**2 +
   1.13542*T*LN(T) - 5.83812*T + 0.25*GHSERAL# + 0.75*GHSERNI# - 41810.9 -
   6040.3*T**(-1); 10000 N !
PARAMETER G(FCC_L12,NI:AL:AL:AL:VA;0) 1 0.55316*T + 0.75*GHSERAL# +
   0.25*GHSERNI# - 21524.2; 10000 N !
PARAMETER G(FCC_L12,NI:AL:AL:NI:VA;0) 1 1.10633*T + 0.5*GHSERAL# +
   0.5*GHSERNI# - 57350.5; 10000 N !
PARAMETER G(FCC_L12,NI:AL:NI:NI:VA;0) 1 3.13447E-7*T**3 - 0.000436214*T**2 +
   1.13542*T*LN(T) - 5.83812*T + 0.25*GHSERAL# + 0.75*GHSERNI# - 41810.9 -
   6040.3*T**(-1); 10000 N !
PARAMETER G(FCC_L12,NI:NI:AL:AL:VA;0) 1 1.10633*T + 0.5*GHSERAL# +
   0.5*GHSERNI# - 57350.5; 10000 N !
PARAMETER G(FCC_L12,NI:NI:AL:NI:VA;0) 1 3.13447E-7*T**3 - 0.000436214*T**2 +
   1.13542*T*LN(T) - 5.83812*T + 0.25*GHSERAL# + 0.75*GHSERNI# - 41810.9 -
   6040.3*T**(-1); 10000 N !
PARAMETER G(FCC_L12,NI:NI:NI:AL:VA;0) 1 3.13447E-7*T**3 - 0.000436214*T**2 +
   1.13542*T*LN(T) - 5.83812*T + 0.25*GHSERAL# + 0.75*GHSERNI# - 41810.9 -
   6040.3*T**(-1); 10000 N !
PARAMETER L(FCC_L12,AL:AL:AL:AL,NI:VA;0) 1 5512.0; 10000 N !
PARAMETER L(FCC_L12,AL:AL:AL:AL,NI:VA;1) 1 -533.333; 10000 N !
PARAMETER L(FCC_L12,AL:AL:AL:AL,NI:VA;2) 1 -1952.0; 10000 N !
PARAMETER L(FCC_L12,AL:AL:AL,NI:AL:VA;0) 1 5512.0; 10000 N !
PARAMETER L(FCC_L12,AL:AL:AL,NI:AL:VA;1) 1 -533.333; 10000 N !
PARAMETER L(FCC_L12,AL:AL:AL,NI:AL:VA;2) 1 -1952.0; 10000 N !
PARAMETER L(FCC_L12,AL:AL:AL,NI:NI:VA;0) 1 3768.0; 10000 N !
PARAMETER L(FCC_L12,AL:AL:AL,NI:NI:VA;1) 1 2752.0; 10000 N !
PARAMETER L(FCC_L12,AL:AL:AL,NI:NI:VA;2) 1 32.0; 10000 N !
PARAMETER L(FCC_L12,AL:AL,NI:AL:AL:VA;0) 1 5512.0; 10000 N !
PARAMETER L(FCC_L12,AL:AL,NI:AL:AL:VA;1) 1 -533.333; 10000 N !
PARAMETER L(FCC_L12,AL:AL,NI:AL:AL:VA;2) 1 -1952.0; 10000 N !
PARAMETER L(FCC_L12,AL:AL,NI:NI:AL:VA;0) 1 3768.0; 10000 N !
PARAMETER L(FCC_L12,AL:AL,NI:NI:AL:VA;1) 1 2752.0; 10000 N !
PARAMETER L(FCC_L12,AL:AL,NI:NI:AL:VA;2) 1 32.0; 10000 N !
PARAMETER L(FCC_L12,AL:AL,NI:NI:NI:VA;0) 1 -5196.0; 10000 N !
PARAMETER L(FCC_L12,AL:AL,NI:NI:NI:VA;1) 1 3125.33; 10000 N !
PARAMETER L(FCC_L12,AL:AL,NI:NI:NI:VA;2) 1 2522.67; 10000 N !
PARAMETER L(FCC_L12,AL,NI:AL:AL:AL:VA;0) 1 5512.0; 10000 N !
PARAMETER L(FCC_L12,AL,NI:AL:AL:AL:VA;1) 1 -533.333; 10000 N !
PARAMETER L(FCC_L12,AL,NI:AL:AL:AL:VA;2) 1 -1952.0; 10000 N !
PARAMETER L(FCC_L12,AL,NI:NI:AL:AL:VA;0) 1 3768.0; 10000 N !
PARAMETER L(FCC_L12,AL,NI:NI:AL:AL:VA;1) 1 2752.0; 10000 N !
PARAMETER L(FCC_L12,AL,NI:NI:AL:AL:VA;2) 1 32.0; 10000 N !
PARAMETER L(FCC_L12,AL,NI:NI:NI:AL:VA;0) 1 -5196.0; 10000 N !
PARAMETER L(FCC_L12,AL,NI:NI:NI:AL:VA;1) 1 3125.33; 10000 N !
PARAMETER L(FCC_L12,AL,NI:NI:NI:AL:VA;2) 1 2522.67; 10000 N !
PARAMETER L(FCC_L12,AL,NI:NI:NI:NI:VA;0) 1 5122.0; 10000 N !
PARAMETER L(FCC_L12,AL,NI:NI:NI:NI:VA;1) 1 1226.67; 10000 N !
PARAMETER L(FCC_L12,AL,NI:NI:NI:NI:VA;2) 1 -1704.0; 10000 N !
PARAMETER L(FCC_L12,NI:AL:AL:AL,NI:VA;0) 1 3768.0; 10000 N !
PARAMETER L(FCC_L12,NI:AL:AL:AL,NI:VA;1) 1 2752.0; 10000 N !
PARAMETER L(FCC_L12,NI:AL:AL:AL,NI:VA;2) 1 32.0; 10000 N !
PARAMETER L(FCC_L12,NI:AL:AL,NI:NI:VA;0) 1 -5196.0; 10000 N !
PARAMETER L(FCC_L12,NI:AL:AL,NI:NI:VA;1) 1 3125.33; 10000 N !
PARAMETER L(FCC_L12,NI:AL:AL,NI:NI:VA;2) 1 2522.67; 10000 N !
PARAMETER L(FCC_L12,NI:AL,NI:NI:NI:VA;0) 1 5122.0; 10000 N !
PARAMETER L(FCC_L12,NI:AL,NI:NI:NI:VA;1) 1 1226.67; 10000 N !
PARAMETER L(FCC_L12,NI:AL,NI:NI:NI:VA;2) 1 -1704.0; 10000 N !
PARAMETER L(FCC_L12,NI:NI:AL:AL,NI:VA;0) 1 -5196.0; 10000 N !
PARAMETER L(FCC_L12,NI:NI:AL:AL,NI:VA;1) 1 3125.33; 10000 N !
PARAMETER L(FCC_L12,NI:NI:AL:AL,NI:VA;2) 1 2522.67; 10000 N !
PARAMETER L(FCC_L12,NI:NI:AL,NI:NI:VA;0) 1 5122.0; 10000 N !
PARAMETER L(FCC_L12,NI:NI:AL,NI:NI:VA;1) 1 1226.67; 10000 N !
PARAMETER L(FCC_L12,NI:NI:AL,NI:NI:VA;2) 1 -1704.0; 10000 N !
PARAMETER L(FCC_L12,NI:NI:NI:AL,NI:VA;0) 1 5122.0; 10000 N !
PARAMETER L(FCC_L12,NI:NI:NI:AL,NI:VA;1) 1 1226.67; 10000 N !
PARAMETER L(FCC_L12,NI:NI:NI:AL,NI:VA;2) 1 -1704.0; 10000 N !
PARAMETER L(FCC_L12,AL,NI:AL,NI:AL,NI:AL,NI:VA;0) 1 -4257290.0; 10000 N !
PARAMETER L(LIQUID,AL,NI;0) 1 -197437.0; 10000 N !
PARAMETER L(LIQUID,AL,NI;1) 1 14423.4; 10000 N !
PARAMETER L(LIQUID,AL,NI;2) 1 61412.5; 10000 N !