ELEMENT CR BLANK 0 0 0 !
ELEMENT FE BLANK 0 0 0 !
ELEMENT VA BLANK 0 0 0 !

FUNCTION GHSERCR 1 -1.47721E-6*T**3 + 0.00189435*T**2 - 26.908*T*LN(T) +
   157.48*T - 8856.94 + 139250*T**(-1); 2180.0 Y -50*T*LN(T) + 344.18*T -
   34869.344 - 2.88526E+32*T**(-9); 6000.0 N !
FUNCTION GHSERFE 1 -5.8927E-8*T**3 - 0.00439752*T**2 - 23.5143*T*LN(T) +
   124.134*T + 1225.7 + 77359*T**(-1); 1811.0 Y -46*T*LN(T) + 299.31255*T -
   25383.581 + 2.29603E+31*T**(-9); 6000.0 N !

FUNCTION GBCCCR 1 GHSERCR#; 6000.0 N !
FUNCTION GBCCFE 1 GHSERFE#; 6000.0 N !

TYPE_DEFINITION % SEQ * !
DEFINE_SYSTEM_DEFAULT ELEMENT 2 !
DEFAULT_COMMAND DEFINE_SYSTEM_ELEMENT VA !

TYPE_DEFINITION & GES A_P_D BCC_A2 MAGNETIC -1.0 0.4 !

PHASE BCC_A2 %&  2 1 3 !
CONSTITUENT BCC_A2 :CR,FE:VA: !

PARAMETER G(BCC_A2,CR:VA;0) 1 GBCCCR#; 10000 N !
PARAMETER G(BCC_A2,FE:VA;0) 1 GBCCFE#; 10000 N !

PARAMETER TC(BCC_A2,CR:VA;0) 1 -311.50; 6000 N !
PARAMETER BM(BCC_A2,CR:VA;0) 1 -0.008; 6000 N !

PARAMETER TC(BCC_A2,FE:VA;0) 1 1043; 6000 N !
PARAMETER BM(BCC_A2,FE:VA;0) 1 2.22; 6000 N !

PARAMETER L(BCC_A2,CR,FE:VA;0) 1 1000; 10000 N !