$*************************************************************************$
$     TDB file of Cr-Fe-Nb ternary system                                 $
$     Written by A. Jacob, March 2016									  $
$*************************************************************************$
                   
 ELEMENT /-   ELECTRON_GAS              0.0000E+00  0.0000E+00  0.0000E+00!
 ELEMENT VA   VACUUM                    0.0000E+00  0.0000E+00  0.0000E+00!
 ELEMENT CR   BCC_A2                    5.1996E+01  4.0500E+03  2.3560E+01!
 ELEMENT FE   BCC_A2                    5.5847E+01  4.4890E+03  2.7280E+01!
 ELEMENT NB   BCC_A2                    9.2906E+01  5.2200E+03  3.6270E+01!
 
$**************FUNCTIONS**************************
 
 FUNCTION GHSERFE    2.98150E+02  +1225.7+124.134*T-23.5143*T*LN(T)
     -.00439752*T**2-5.8927E-08*T**3+77359*T**(-1);  1.81100E+03  Y
      -25383.581+299.31255*T-46*T*LN(T)+2.29603E+31*T**(-9);  6.00000E+03  N 
     !
 FUNCTION GHSERNB    2.98150E+02  -8519.353+142.045475*T-26.4711*T*LN(T)
     +2.03475E-04*T**2-3.5012E-07*T**3+93399*T**(-1);  2.75000E+03  Y
      -37669.3+271.720843*T-41.77*T*LN(T)+1.528238E+32*T**(-9);  6.00000E+03 
      N !
 FUNCTION GHSERCR    2.98150E+02  -8856.94+157.48*T-26.908*T*LN(T)
     +.00189435*T**2-1.47721E-06*T**3+139250*T**(-1);  2.18000E+03  Y
      -34869.344+344.18*T-50*T*LN(T)-2.88526E+32*T**(-9);  6.00000E+03  N !
 FUNCTION GFCCFE     2.98150E+02  -1462.4+8.282*T-1.15*T*LN(T)+6.4E-04*T**2
     +GHSERFE#;  1.81100E+03  Y
      -27097.3963+300.252559*T-46*T*LN(T)+2.78854E+31*T**(-9);  6.00000E+03  
     N !
 FUNCTION GFCCNB     2.98150E+02  +GHSERNB#+13500+1.7*T;   6.00000E+03   N !
 FUNCTION GFCCCR     2.98150E+02  +GHSERCR#+7284+.163*T;   6.00000E+03   N !
 FUNCTION GLIQFE     2.98150E+02  +GHSERFE#+12040.17-6.55843*T
     -3.67516E-21*T**7;  1.81100E+03  Y
      -10838.83+291.302*T-46*T*LN(T);  6.00000E+03  N !
 FUNCTION GLIQNB     2.98150E+02  +GHSERNB#+29781.555-10.816418*T
     -3.06098E-23*T**7;  2.75000E+03  Y
      -7499.398+260.756148*T-41.77*T*LN(T);  6.00000E+03  N !
 FUNCTION GLIQCR     2.98150E+02  +GHSERCR#+24339.955-11.420225*T
     +2.37615E-21*T**7;  2.18000E+03  Y
      -16459.984+335.616316*T-50*T*LN(T);  6.00000E+03  N !
 FUNCTION UN_ASS 298.15 0; 300 N !

$-----------------DEFINITIONS--------------------
 
 TYPE_DEFINITION % SEQ *!
 DEFINE_SYSTEM_DEFAULT ELEMENT 2 !
 DEFAULT_COMMAND DEF_SYS_ELEMENT VA /- !



 TYPE_DEFINITION & GES A_P_D BCC_A2 MAGNETIC  -1.0    4.00000E-01 !

$------------------------BCC-A2------------------------

 PHASE BCC_A2  %&  2 1   3 !
    CONSTITUENT BCC_A2  :CR,FE,NB : VA :  !

   PARAMETER G(BCC_A2,CR:VA;0)            298.15 +GHSERCR; 6000 N REF1 !
   PARAMETER TC(BCC_A2,CR:VA;0)           298.15 -311.5; 6000 N REF1 !
   PARAMETER BMAGN(BCC_A2,CR:VA;0)        298.15 -.008; 6000 N REF1 !
   PARAMETER G(BCC_A2,FE:VA;0)            298.15 +GHSERFE; 6000 N REF1 !
   PARAMETER TC(BCC_A2,FE:VA;0)           298.15 +1043; 6000 N REF1 !
   PARAMETER BMAGN(BCC_A2,FE:VA;0)        298.15 +2.22; 6000 N REF1 !
   PARAMETER G(BCC_A2,NB:VA;0)            298.15 +GHSERNB; 6000 N REF1 !
   PARAMETER G(BCC_A2,CR,FE:VA;0)         298.15 +20500-9.68*T; 6000 N REF2 !
   PARAMETER BMAGN(BCC_A2,CR,FE:VA;0)     298.15 -.85; 6000 N REF2 !
   PARAMETER TC(BCC_A2,CR,FE:VA;0)        298.15 +1650; 6000 N REF2 !
   PARAMETER TC(BCC_A2,CR,FE:VA;1)        298.15 +550; 6000 N REF2 !
   PARAMETER G(BCC_A2,CR,NB:VA;0)         298.15 +61904-23.12*T; 6000 N REF5 !
   PARAMETER G(BCC_A2,CR,NB:VA;1)         298.15 +37791-19.31*T; 6000 N REF5 !
   PARAMETER G(BCC_A2,FE,NB:VA;0)         298.15 -10893+10.288*T; 6000 N REF4 !
   PARAMETER G(BCC_A2,FE,NB:VA;1)         298.15 +4674-5.776*T; 6000 N REF4 !

       PARAMETER G(BCC_A2,CR,FE,NB:VA;0) 298.15  0; 6000 N!
	   
       PARAMETER G(BCC_A2,CR,FE,NB:VA;1) 298.15   0; 6000 N!
	   
       PARAMETER G(BCC_A2,CR,FE,NB:VA;2) 298.15 0; 6000 N!
 
$---------------------FCC-A1--------------------------------

 TYPE_DEFINITION ' GES A_P_D FCC_A1 MAGNETIC  -3.0    2.80000E-01 !
 PHASE FCC_A1  %'  2 1   1 !
    CONSTITUENT FCC_A1  :CR,FE%,NB : VA :  !
    PARAMETER G(FCC_A1,CR:VA;0)            298.15 +GHSERCR+7284+.163*T; 6000 N REF1 !
   PARAMETER TC(FCC_A1,CR:VA;0)           298.15 -1109; 6000 N  REF1 !
   PARAMETER BMAGN(FCC_A1,CR:VA;0)        298.15 -2.46; 6000 N REF1 !
   PARAMETER G(FCC_A1,FE:VA;0)            298.15 +GFCCFE; 6000 N REF1 !
   PARAMETER TC(FCC_A1,FE:VA;0)           298.15 -201; 6000 N REF1 !
   PARAMETER BMAGN(FCC_A1,FE:VA;0)        298.15 -2.1; 6000 N REF1 !
   PARAMETER G(FCC_A1,NB:VA;0)            298.15 +GHSERNB+13500+1.7*T; 
    6000 N REF1!
   PARAMETER G(FCC_A1,CR,FE:VA;0)         298.15 +10833-7.477*T; 6000 N REF2 !
   PARAMETER G(FCC_A1,CR,FE:VA;1)         298.15 +1410; 6000 N REF2 !
   PARAMETER G(FCC_A1,FE,NB:VA;0)         298.15 -6176-2.04*T; 6000 N REF4 !
   
   PARAMETER G(FCC_A1,CR,NB:VA;0)  2.98150E+02  +61904-23.12*T;   
  6.00000E+03   N  !
   PARAMETER G(FCC_A1,CR,NB:VA;1)  2.98150E+02  +37791-19.31*T;   
  6.00000E+03   N  !


$--------------------------LIQUID----------------------------

 PHASE LIQUID:L  %  1  1.0  !
    CONSTITUENT LIQUID:L  :CR,FE,NB :  !

   PARAMETER G(LIQUID,CR;0)  2.98150E+02  +GLIQCR#;   6.00000E+03   N REF1 !
   PARAMETER G(LIQUID,FE;0)  2.98150E+02  +GLIQFE#;   6.00000E+03   N REF1 !
   PARAMETER G(LIQUID,NB;0)  2.98150E+02  +GLIQNB#;   6.00000E+03   N REF1 !
   PARAMETER G(LIQUID,CR,FE;0)  2.98150E+02  -17737+7.996546*T;   
  6.00000E+03   N REF3 !
   PARAMETER G(LIQUID,CR,FE;1)  2.98150E+02  -1331;   6.00000E+03   N REF3 !
   PARAMETER G(LIQUID,CR,NB;0)  2.98150E+02  -10856;   6.00000E+03   N REF5 !
   PARAMETER G(LIQUID,CR,NB;1)  2.98150E+02  -5056;   6.00000E+03   N REF5 !
   PARAMETER G(LIQUID,CR,NB;2)  2.98150E+02  -2520;   6.00000E+03   N REF5 !
   PARAMETER G(LIQUID,FE,NB;0)  2.98150E+02  -74257+99.67*T-10*T*LN(T);   
  6.00000E+03   N REF4 !
   PARAMETER G(LIQUID,FE,NB;1)  2.98150E+02  +17624-10.805*T;   6.00000E+03  
   N REF4 !

 PARAMETER G(LIQUID,CR,FE,NB;0) 298.15 +35000; 6000 N !
 PARAMETER G(LIQUID,CR,FE,NB;1) 298.15 +25000; 6000 N !
 PARAMETER G(LIQUID,CR,FE,NB;2) 298.15 -30000; 6000 N !

$----------------------LAVES_C14 ----------------------------

  PHASE LAVES_C14  %  2 2   1 !
    CONSTITUENT LAVES_C14  :CR,FE,NB : CR,FE,NB :  !

   PARAMETER G(LAVES_C14,CR:CR;0)  2.98150E+02  +82440+3*GHSERCR#;   
  6.00000E+03   N !
   PARAMETER G(LAVES_C14,FE:CR;0)  2.98150E+02  66547+2*GHSERFE#
  +GHSERCR#;   6.00000E+03   N !
$71880  
   PARAMETER G(LAVES_C14,NB:CR;0)  2.98150E+02  +227160 +2*GHSERNB#
  +GHSERCR#;   6.00000E+03   N !
   PARAMETER G(LAVES_C14,CR:FE;0)  2.98150E+02  86733+2*GHSERCR#
  +GHSERFE#;   6.00000E+03   N !  
   PARAMETER G(LAVES_C14,FE:FE;0)  2.98150E+02  +44130+3*GHSERFE#;   
  6.00000E+03   N REF4 !
   PARAMETER G(LAVES_C14,NB:FE;0)  2.98150E+02  +180030+2*GHSERNB#
  +GHSERFE#;   6.00000E+03   N REF4 !
   PARAMETER G(LAVES_C14,CR:NB;0)  2.98150E+02 -5600-10.46*T
   +2*GHSERCR#+GHSERNB#;   6.00000E+03   N  !

   PARAMETER G(LAVES_C14,FE:NB;0)  2.98150E+02  -67223+13.971*T
  +2*GHSERFE#+GHSERNB#;   6.00000E+03   N REF4 !
   PARAMETER G(LAVES_C14,NB:NB;0)  2.98150E+02  +49620+3*GHSERNB#;   
  6.00000E+03   N REF4 !

  PARAMETER G(LAVES_C14,FE:FE,NB;0)  2.98150E+02  -33816;   
  6.00000E+03   N REF4 !
   PARAMETER G(LAVES_C14,NB:FE,NB;0)  2.98150E+02  -33816;   
  6.00000E+03   N REF4 !
  
 PARAMETER G(LAVES_C14,CR:FE,NB;0)  2.98150E+02  0;   
  6.00000E+03   N  !  
   PARAMETER G(LAVES_C14,FE:NB,CR;0)  2.98150E+02 -100000;   
  6.00000E+03   N !
  
  PARAMETER G(LAVES_C14,CR,NB:CR;0)  2.98150E+02  35896;   
  6.00000E+03   N  !
  PARAMETER G(LAVES_C14,CR,NB:NB;0)  2.98150E+02  35896;   
  6.00000E+03   N  !
  PARAMETER G(LAVES_C14,CR:CR,NB;0)  2.98150E+02  -55035;   
  6.00000E+03   N  !
  PARAMETER G(LAVES_C14,NB:CR,NB;0)  2.98150E+02  -55035;   
  6.00000E+03   N  !

 
$-------------------LAVES_C15-------------------------

 PHASE LAVES_C15  %  2 2   1 !
    CONSTITUENT LAVES_C15  :CR,FE,NB : CR,FE,NB :  !

   PARAMETER G(LAVES_C15,CR:CR;0)  2.98150E+02  +3*GHSERCR#+79200;   
  6.00000E+03   N REF5 !
   PARAMETER G(LAVES_C15,FE:CR;0)  2.98150E+02  50467+2*GHSERFE#
  +GHSERCR#;   6.00000E+03   N !
   PARAMETER G(LAVES_C15,NB:CR;0)  2.98150E+02  +GHSERCR#+2*GHSERNB#
  +222090;   6.00000E+03   N REF5 !
   PARAMETER G(LAVES_C15,CR:FE;0)  2.98150E+02  80493+2*GHSERCR#
  +GHSERFE#;   6.00000E+03   N ! 
   PARAMETER G(LAVES_C15,FE:FE;0)  2.98150E+02  110290+3*GHSERFE#;   
  6.00000E+03   N !  
   PARAMETER G(LAVES_C15,NB:FE;0)  2.98150E+02  +178263+GHSERFE#
  +2*GHSERNB#;   6.00000E+03   N REF0 ! 
   PARAMETER G(LAVES_C15,CR:NB;0)  2.98150E+02  -6976-10.46*T
  +2*GHSERCR#+GHSERNB#;   6.00000E+03   N REF5 !
   PARAMETER G(LAVES_C15,FE:NB;0)  2.98150E+02 -50000+13.971*T
    +2*GHSERFE#+GHSERNB#;   6.00000E+03   N  !
   PARAMETER G(LAVES_C15,NB:NB;0)  2.98150E+02  +3*GHSERNB#+48600;   
  6.00000E+03   N REF5 !
  
  
   PARAMETER G(LAVES_C15,CR,NB:CR;0)  2.98150E+02  35896;   
  6.00000E+03   N REF5 !
   PARAMETER G(LAVES_C15,CR:CR,NB;0)  2.98150E+02 -55035 ;   
  6.00000E+03   N REF5 !
   PARAMETER G(LAVES_C15,NB:CR,NB;0)  2.98150E+02  -55035;   
  6.00000E+03   N REF5 !
   PARAMETER G(LAVES_C15,CR,NB:NB;0)  2.98150E+02  35896;   
  6.00000E+03   N REF5 !

 PARAMETER G(LAVES_C15,FE:FE,NB;0)  2.98150E+02 -33816;   
  6.00000E+03   N !
  PARAMETER G(LAVES_C15,NB:FE,NB;0)  2.98150E+02 -33816;   
  6.00000E+03   N  !
   
   PARAMETER G(LAVES_C15,CR:FE,NB;0)  2.98150E+02  0;   
  6.00000E+03   N  ! 
  
  PARAMETER G(LAVES_C15,FE:CR,NB;0)  2.98150E+02  -100000;   
  6.00000E+03   N  ! 
 
   PARAMETER G(LAVES_C15,CR,FE:NB;0)  2.98150E+02  0;   
  6.00000E+03   N  !
 


$-----------------------MU_PHASE-----------------------------------

 PHASE MU_PHASE  %  4 1   4   2   6 !
    CONSTITUENT MU_PHASE  :CR,FE,NB : NB : CR,FE,NB : CR,FE,NB :  !

   PARAMETER G(MU_PHASE,CR:NB:CR:CR;0)  2.98150E+02  +9*GHSERCR#+4*GHSERNB#
     +47060;   6.00000E+03   N !

   PARAMETER G(MU_PHASE,FE:NB:CR:CR;0)  2.98150E+02  +GHSERFE#+4*GHSERNB#
    +8*GHSERCR# +30559;   6.00000E+03   N ! 

   PARAMETER G(MU_PHASE,NB:NB:CR:CR;0)  2.98150E+02  +5*GHSERNB#+8*GHSERCR#
    +135200;   6.00000E+03   N !

   PARAMETER G(MU_PHASE,CR:NB:FE:CR;0)  2.98150E+02  +7*GHSERCR#+4*GHSERNB#
     +2*GHSERFE# +86129;   6.00000E+03   N  !

   PARAMETER G(MU_PHASE,FE:NB:FE:CR;0)  2.98150E+02  +3*GHSERFE#+4*GHSERNB#
    +6*GHSERCR# +97604;   6.00000E+03   N  !

   PARAMETER G(MU_PHASE,NB:NB:FE:CR;0)  2.98150E+02  +5*GHSERNB#+2*GHSERFE#
    +6*GHSERCR# +192989;   6.00000E+03   N  !

   PARAMETER G(MU_PHASE,CR:NB:NB:CR;0)  2.98150E+02  +7*GHSERCR#+6*GHSERNB#
   +10140;   6.00000E+03   N  ! 

   PARAMETER G(MU_PHASE,FE:NB:NB:CR;0)  2.98150E+02  +GHSERFE#+6*GHSERNB#
    +6*GHSERCR# -9919;   6.00000E+03   N  !

   PARAMETER G(MU_PHASE,NB:NB:NB:CR;0)  2.98150E+02  +7*GHSERNB#+6*GHSERCR#
    +75660 ;   6.00000E+03   N  ! 

   PARAMETER G(MU_PHASE,CR:NB:CR:FE;0)  2.98150E+02  +3*GHSERCR#+6*GHSERFE#
    +4*GHSERNB# -51272;   6.00000E+03   N  !

   PARAMETER G(MU_PHASE,FE:NB:CR:FE;0)  2.98150E+02  +7*GHSERFE#+4*GHSERNB#
    +2*GHSERCR# -45258;   6.00000E+03   N  !

   PARAMETER G(MU_PHASE,NB:NB:CR:FE;0)  2.98150E+02  +5*GHSERNB#+2*GHSERCR#
    +6*GHSERFE# +13767;   6.00000E+03   N ! 
	
   PARAMETER G(MU_PHASE,CR:NB:FE:FE;0)  2.98150E+02  +GHSERCR#+4*GHSERNB#
     +8*GHSERFE#  +32907;   6.00000E+03   N  !	 

   PARAMETER G(MU_PHASE,FE:NB:FE:FE;0)  2.98150E+02  9*GHSERFE#  +4*GHSERNB#
	-100230;   6.00000E+03   N REF4 !	
 
   PARAMETER G(MU_PHASE,NB:NB:FE:FE;0)  2.98150E+02  -27430+8*GHSERFE#
     +5*GHSERNB#;   6.00000E+03   N REF4 !

   PARAMETER G(MU_PHASE,CR:NB:NB:FE;0)  2.98150E+02  +GHSERCR#+6*GHSERNB#
     +6*GHSERFE#  -158000-19*T;   6.00000E+03   N !

 PARAMETER G(MU_PHASE,FE:NB:NB:FE;0)  2.98150E+02 -266116 + 56*T 
     +7*GHSERFE#+6*GHSERNB#;   6.00000E+03   N  !                                                                                                                                                      


   PARAMETER G(MU_PHASE,NB:NB:NB:FE;0)  2.98150E+02  -131400+6*GHSERFE#
    +7*GHSERNB#;   6.00000E+03   N REF4 !	

   PARAMETER G(MU_PHASE,CR:NB:CR:NB;0)  2.98150E+02  +3*GHSERCR#+10*GHSERNB#
    +359580;   6.00000E+03   N  !

   PARAMETER G(MU_PHASE,FE:NB:CR:NB;0)  2.98150E+02  +GHSERFE#+10*GHSERNB#
    +2*GHSERCR#  +338945;   6.00000E+03   N  !

   PARAMETER G(MU_PHASE,NB:NB:CR:NB;0)  2.98150E+02  +11*GHSERNB#+2*GHSERCR#
    +378690;   6.00000E+03   N  !

   PARAMETER G(MU_PHASE,CR:NB:FE:NB;0)  2.98150E+02  +GHSERCR#+10*GHSERNB#
     +2*GHSERFE# +434399;   6.00000E+03   N  !

   PARAMETER G(MU_PHASE,FE:NB:FE:NB;0)  2.98150E+02  +426530+3*GHSERFE#
     +10*GHSERNB#;   6.00000E+03   N REF4 !

   PARAMETER G(MU_PHASE,NB:NB:FE:NB;0)  2.98150E+02  +499200+2*GHSERFE#
    +11*GHSERNB#;   6.00000E+03   N  REF4 !

   PARAMETER G(MU_PHASE,CR:NB:NB:NB;0)  2.98150E+02  +GHSERCR#+12*GHSERNB#
     +214240;   6.00000E+03   N  !

   PARAMETER G(MU_PHASE,FE:NB:NB:NB;0)  2.98150E+02  +176020+GHSERFE#
      +12*GHSERNB#;   6.00000E+03   N REF4 !

   PARAMETER G(MU_PHASE,NB:NB:NB:NB;0)  2.98150E+02  +227500+13*GHSERNB#;   
      6.00000E+03   N REF4 !
	  
   PARAMETER G(MU_PHASE,CR,FE:NB:NB:CR,FE;0) 2.98150E+02  -120000 ; 
		6.00000E+03 N !


$----------------------SIGMA_PHASE-------------------------------

 PHASE SIGMA  %  3 10   4   16 !
    CONSTITUENT SIGMA  :FE : CR,NB : CR,FE,NB :  !

   PARAMETER G(SIGMA,FE:CR:CR;0)  2.98150E+02  +10*GFCCFE#+20*GHSERCR#
    +83844-111.32*T;   6.00000E+03   N REF6 !

   PARAMETER G(SIGMA,FE:NB:CR;0)  2.98150E+02  +10*GHSERFE#+4*GHSERNB#
      +16*GHSERCR#+93933;   6.00000E+03   N  !

   PARAMETER G(SIGMA,FE:CR:FE;0)  2.98150E+02  +10*GFCCFE#+4*GHSERCR#
   +16*GHSERFE+140515-111.32*T ;   6.00000E+03   N REF6!

   PARAMETER G(SIGMA,FE:NB:FE;0)  2.98150E+02  +26*GHSERFE#+4*GHSERNB#
    +57084;   6.00000E+03   N  !

   PARAMETER G(SIGMA,FE:CR:NB;0)  2.98150E+02  +10*GHSERFE#+4*GHSERCR#
    +16*GHSERNB# +323133;   6.00000E+03   N REF0 !
	
   PARAMETER G(SIGMA,FE:NB:NB;0)  2.98150E+02  +10*GHSERFE#+20*GHSERNB#
    +497885;  6.00000E+03   N REF0 !

 LIST_OF_REFERENCES
 REF1 SGTE database
 REF2 Andersson and Sundman (1987)
 REF3 Lee (1993)
 REF4 Khvan et al. (2013)
 REF5 Schmetterer et al. (2014) JPDE 35 Issue 4 
 REF6 Wesmann, Fe-Cr unpublished work
 NUMBER  SOURCE
  ! 
 
