$Cr-Ti-V
$
$ TDB-file for the thermodynamic assessment of the Cr-Ti-V system
$
$-----------------------------------------------------------------------------
$ 2014.10.21
$
$ TDB file Created by T.Abe, T.Bolotova
$
$ Particle Simulation and Thermodynamics Group, National Institute for
$ Materials Science. 1-2-1 Sengen, Tsukuba, Ibaraki 305-0047, Japan
$ e-mail: abe.taichi(at)nims.go.jp
$ Copyright (C) NIMS 2014
$
$ PARAMETERS ARE TAKEN FROM
$  Thermodynamic and Kinetic Modeling of the Cr-Ti-V System
$   G. Ghosh
$  Journal of Phase Equilibria Vol. 23 No. 4 2002 p.310-328
$ ------------------------------------------------------------------------------
$ Comments
$ There is a miscibility gap in BCC at low temperatures in the ternary system.
$                                                                     T.A.
$
$ ------------------------------------------------------------------------------
 ELEMENT /-   ELECTRON_GAS              0.0000E+00  0.0000E+00  0.0000E+00!
 ELEMENT VA   VACUUM                    0.0000E+00  0.0000E+00  0.0000E+00!
 ELEMENT TI   HCP_A3                    4.7880E+01  4.8100E+03  3.0648E+01 !
 ELEMENT CR   BCC_A2                    5.1996E+01  4.0500E+03  2.3560E+01 !
 ELEMENT V    BCC_A2                    5.0941E+01  4.5070E+03  3.0890E+01 !
$ ------------------------------------------------------------------------------
 TYPE_DEFINITION % SEQ *!
 DEFINE_SYSTEM_DEFAULT ELEMENT 2 !
 DEFAULT_COMMAND DEF_SYS_ELEMENT VA /- !
$ ------------------------------------------------------------------------------
$ TI
$ ------------------------------------------------------------------------------
 FUNCTION GHSERTI  298.15
 -8059.921+133.615208*T-23.9933*T*LN(T)-4.777975E-3*T**2+0.106716E-6*T**3
 +72636*T**(-1);   900.00 Y
 -7811.815+132.988068*T-23.9887*T*LN(T)-4.2033E-3*T**2-0.090876E-6*T**3
 +42680*T**(-1);  1155.00 Y
 908.837+66.976538*T-14.9466*T*LN(T)-8.1465E-3*T**2+0.202715E-6*T**3
 -1477660*T**(-1);  1941.00 Y
 -124526.786+638.806871*T-87.2182461*T*LN(T)+8.204849E-3*T**2-0.304747E-6*T**3
 +36699805*T**(-1);  4000.00 N !

 FUNCTION GBCCTI   298.15
 -1272.064+134.71418*T-25.5768*T*LN(T)-0.663845E-3*T**2-0.278803E-6*T**3
 +7208*T**(-1);  1155.00 Y
 6667.385+105.366379*T-22.3771*T*LN(T)+1.21707E-3*T**2-0.84534E-6*T**3
 -2002750*T**(-1);  1941.00 Y
 26483.26-182.426471*T+19.0900905*T*LN(T)-22.00832E-3*T**2+1.228863E-6*T**3
 +1400501*T**(-1);  4000.00 N !

 FUNCTION GLIQTI   298.15
 4134.494+126.63427*T-23.9933*T*LN(T)-4.777975E-3*T**2+0.106716E-6*T**3
 +72636*T**(-1);   900.00 Y
 4382.601+126.00713*T-23.9887*T*LN(T)-4.2033E-3*T**2-0.090876E-6*T**3
 +42680*T**(-1);  1155.00 Y
 13103.253+59.9956*T-14.9466*T*LN(T)-8.1465E-3*T**2+0.202715E-6*T**3
 -1477660*T**(-1);  1300.00 Y
 369519.198-2554.0225*T+342.059267*T*LN(T)-163.409355E-3*T**2+12.457117E-6*T**3
 -67034516*T**(-1);  1941.00 Y
 -19887.066+298.7367*T-46.29*T*LN(T);  4000.00 N !

 FUNCTION GFCCTI 298.15 6000-0.1*T+GHSERTI; 4000 N !

$ ------------------------------------------------------------------------------
$ CR
$ ------------------------------------------------------------------------------
 FUNCTION GHSERCR 298.15
 -8856.94+157.48*T-26.908*T*LN(T)+1.89435E-3*T**2-1.47721E-6*T**3
 +139250*T**(-1); 2180 Y
 -34869.344+344.18*T-50*T*LN(T)-2885.26E29*T**(-9);  6000.00 N !

 FUNCTION GLIQCR 298.15 24339.955-11.420225*T+237.615E-23*T**7+GHSERCR; 2180 Y
 -16459.984+335.616316*T-50*T*LN(T);  6000.00 N !

 FUNCTION GFCCCR 298.15 7284+0.163*T+GHSERCR; 6000 N !

 FUNCTION GHCPCR 298.15 4438+GHSERCR; 6000 N !

$ ------------------------------------------------------------------------------
$ V
$ ------------------------------------------------------------------------------
 FUNCTION GHSERV   298.15
 -7930.43+133.346053*T-24.134*T*LN(T)-3.098E-3*T**2+0.12175E-6*T**3
 +69460*T**(-1);   790.00 Y
 -7967.842+143.291093*T-25.9*T*LN(T)+0.0625E-3*T**2-0.68E-6*T**3;  2183.00 Y
 -41689.864+321.140783*T-47.43*T*LN(T)+644.389E29*T**(-9);  4000.00 N !
 FUNCTION OLDGLIQV 298.15 +20764.117-9.455552*T-519.136E-24*T**7+GHSERV; 2183 Y
 -19617.51+311.055983*T-47.43*T*LN(T);  4000.00 N !
 FUNCTION GFCCV 298.15 7500+1.7*T+GHSERV; 4000 N !
 FUNCTION GHCPV 298.15 4000+2.4*T+GHSERV; 4000 N !

$---

 FUNCTION  GHSERVV 298.15 -7930.43+133.346053*T-24.134*T*LN(T)
     -0.003098*T**2+1.2175E-7*T**3+69460*T**-1;                     790
  Y  -7967.842+143.291093*T-25.9*T*LN(T)+6.25E-5*T**2-6.8E-7*T**3;  2183
  Y  -41689.864+321.140783*T-47.43*T*LN(T)+6.44389E31*T**(-9);      4000 N!

 FUNCTION GHSERVZ 298.15 -7930.43+133.346053*T-24.134*T*LN(T)
     -0.003098*T**2+1.2175E-7*T**3+69460*T**(-1); 790
  Y  -7967.842+143.291093*T-25.9*T*LN(T)+6.25E-5*T**2-6.8E-7*T**3;  4000
  Y  -41689.864+321.140783*T-47.43*T*LN(T)+6.44389E31*T**(-9);      6000 N!
 FUNCTION  GLIQVV   298.15
    + 20764.117-9.455552*T-5.19136E-22*T**7+GHSERVV; 790 Y
    +20764.117-9.455552*T-5.19136E-22*T**7+GHSERVV; 2183 Y
    +22072.354-10.0848*T-6.44389E31*T**(-9)+GHSERVV; 4000 N !
$-----------------------------------------------------------------------------
$   LIQUI
$-----------------------------------------------------------------------------
 PHASE  LIQUID % 1 1     !
 CONSTITUENT  LIQUID : CR,TI,V    :   !
 PARAMETER G(LIQUID,CR;0)   298.15   GLIQCR; 6000 N !
 PARAMETER G(LIQUID,TI;0)   298.15   GLIQTI ; 6000 N !
 PARAMETER G(LIQUID,V;0)   298.15   GLIQVV ; 6000 N !
 PARAMETER G(LIQUID,CR,TI;0)   298.15   -365.81 ; 6000 N !
 PARAMETER G(LIQUID,CR,TI;1)   298.15   -3030.23 ; 6000 N !
 PARAMETER G(LIQUID,CR,TI;2)   298.15   +1549.08 ; 6000 N !
 PARAMETER G(LIQUID,CR,V;0)   298.15   -20224.86 ; 6000 N !
 PARAMETER G(LIQUID,CR,V;1)   298.15   -13469.90 ; 6000 N !
 PARAMETER G(LIQUID,TI,V;0)   298.15   368.55 ; 6000 N !
 PARAMETER G(LIQUID,TI,V;1)   298.15   2838.63 ; 6000 N !
$-----------------------------------------------------------------------------
$   BCC_A2
$-----------------------------------------------------------------------------
 TYPE_DEFINITION B GES A_P_D BCC_A2 MAGNETIC -1.0  4.00000E-01 !
 PHASE  BCC_A2 %B 2 1 1    !
 CONSTITUENT  BCC_A2 : CR,TI,V : VA   :   !
 PARAMETER G(BCC_A2,CR:VA;0)   298.15   GHSERCR; 6000 N !
 PARAMETER TC(BCC_A2,CR:VA;0)   298.15   -311.5 ; 6000 N !
 PARAMETER BMAGN(BCC_A2,CR:VA;0)   298.15   -0.01 ; 6000 N !
 PARAMETER G(BCC_A2,TI:VA;0)   298.15   GBCCTI ; 6000 N !
 PARAMETER G(BCC_A2,V:VA;0)   298.15   GHSERVV ; 6000 N !
 PARAMETER G(BCC_A2,CR,TI:VA;0)   298.15   -2247.87+9.14144*T ; 6000 N !
 PARAMETER G(BCC_A2,CR,TI:VA;1)   298.15   198.73 ; 6000 N !
 PARAMETER G(BCC_A2,CR,V:VA;0)   298.15   -8253.85-3.61592*T ; 6000 N !
 PARAMETER G(BCC_A2,CR,V:VA;1)   298.15   7494.82-8.69424*T ; 6000 N !
 PARAMETER G(BCC_A2,CR,V:VA;2)   298.15   -17599.07+10.13142*T ; 6000 N !
 PARAMETER G(BCC_A2,CR,V:VA;3)   298.15   1042.58 ; 6000 N !
 PARAMETER G(BCC_A2,TI,V:VA;0)   298.15   6523.17 ; 6000 N !
 PARAMETER G(BCC_A2,TI,V:VA;1)   298.15   2025.39 ; 6000 N !
 PARAMETER G(BCC_A2,CR,TI,V:VA;0)   298.15   -31683.57+77.85716*T ; 6000 N !
 PARAMETER G(BCC_A2,CR,TI,V:VA;1)   298.15   -29472.15+40.11438*T ; 6000 N !
 PARAMETER G(BCC_A2,CR,TI,V:VA;2)   298.15   96150.43-50.14293*T ; 6000 N !
$-----------------------------------------------------------------------------
$   HCP_A3
$-----------------------------------------------------------------------------
 TYPE_DEFINITION H GES A_P_D HCP_A3 MAGNETIC -3.0  2.80000E-01 !
 PHASE  HCP_A3 %H 2 1 0.5    !
 CONSTITUENT  HCP_A3 : CR,TI,V : VA   :   !
 PARAMETER G(HCP_A3,CR:VA;0)   298.15   4438+GHSERCR; 6000 N !
 PARAMETER TC(HCP_A3,CR:VA	;0)   298.15   -1109 ; 6000 N !
 PARAMETER BMAGN(HCP_A3,CR:VA;0)   298.15   -2.46 ; 6000 N !
 PARAMETER G(HCP_A3,TI:VA;0)   298.15   GHSERTI ; 6000 N !
 PARAMETER G(HCP_A3,V:VA;0)   298.15   4000+2.4*T+GHSERVZ ; 6000 N !
 PARAMETER G(HCP_A3,CR,TI:VA;0)   298.15   23900 ; 6000 N !
 PARAMETER G(HCP_A3,CR,V:VA;0)   298.15   5000 ; 6000 N !
 PARAMETER G(HCP_A3,TI,V:VA;0)   298.15   13233 ; 6000 N !
$-----------------------------------------------------------------------------
$   LAVES_C14
$-----------------------------------------------------------------------------
 PHASE  LAVES_C14 % 2 2 1    !
 CONSTITUENT  LAVES_C14 : CR,TI : CR,TI   :   !
 PARAMETER G(LAVES_C14,CR:CR;0)   298.15   15000+3*GHSERCR; 6000 N !
 PARAMETER G(LAVES_C14,CR:TI;0)   298.15
   -26611.83+5.31422*T+2*GHSERCR+GHSERTI ; 6000 N !
 PARAMETER G(LAVES_C14,TI:CR;0)   298.15
    56611.83-5.31422*T+GHSERCR+2*GHSERTI ; 6000 N !
 PARAMETER G(LAVES_C14,TI:TI;0)   298.15   15000+3*GHSERTI ; 6000 N !
 PARAMETER G(LAVES_C14,CR:CR,TI;0)   298.15   60000 ; 6000 N !
 PARAMETER G(LAVES_C14,TI:CR,TI;0)   298.15   60000 ; 6000 N !
 PARAMETER G(LAVES_C14,CR,TI:CR;0)   298.15   50000 ; 6000 N !
 PARAMETER G(LAVES_C14,CR,TI:TI;0)   298.15   50000 ; 6000 N !
$-----------------------------------------------------------------------------
$   LAVES_C36
$-----------------------------------------------------------------------------
 PHASE  LAVES_C36 % 2 2 1    !
 CONSTITUENT  LAVES_C36 : CR,TI,V : CR,TI,V   :   !
 PARAMETER G(LAVES_C36,CR:CR;0)   298.15   15000+3*GHSERCR; 6000 N !"
 PARAMETER G(LAVES_C36,CR:TI;0)   298.15
    -28472.77+6.51846*T+2*GHSERCR+GHSERTI ; 6000 N !
 PARAMETER G(LAVES_C36,TI:CR;0)   298.15
     58472.77-6.51846*T+GHSERCR+2*GHSERTI ; 6000 N !
 PARAMETER G(LAVES_C36,CR:V;0)   298.15
     4378+14*T+2*GHSERCR+GHSERVV ; 6000 N !
 PARAMETER G(LAVES_C36,V:CR;0)   298.15
     25622-14*T+GHSERCR+2*GHSERVV ; 6000 N !
 PARAMETER G(LAVES_C36,TI:V;0)   298.15
    4378+14*T+2*GHSERTI+GHSERVV ; 6000 N !
 PARAMETER G(LAVES_C36,V:TI;0)   298.15
    25622-14*T+GHSERTI+2*GHSERVV ; 6000 N !
 PARAMETER G(LAVES_C36,TI:TI;0)   298.15   15000+3*GHSERTI ; 6000 N !
 PARAMETER G(LAVES_C36,V:V;0)   298.15   15000+3*GHSERVV ; 6000 N !
 PARAMETER G(LAVES_C36,CR:CR,TI;0)   298.15   60000 ; 6000 N !
 PARAMETER G(LAVES_C36,TI:CR,TI;0)   298.15   60000 ; 6000 N !
 PARAMETER G(LAVES_C36,CR,TI:CR;0)   298.15   50000 ; 6000 N !
 PARAMETER G(LAVES_C36,CR,TI:TI;0)   298.15   50000 ; 6000 N !
 PARAMETER G(LAVES_C36,V:CR,TI;0)   298.15   22514-18*T ; 6000 N !
 PARAMETER G(LAVES_C36,CR,TI:V;0)   298.15   22514-18*T ; 6000 N !
 PARAMETER G(LAVES_C36,CR,V:CR;0)   298.15   26406-22*T ; 6000 N !
 PARAMETER G(LAVES_C36,CR,V:TI;0)   298.15   26406-22*T ; 6000 N !
 PARAMETER G(LAVES_C36,CR,V:V;0)   298.15   26406-22*T ; 6000 N !
$
 PARAMETER G(LAVES_C36,CR:CR,V;0)   298.15   26406-22*T ; 6000 N !
 PARAMETER G(LAVES_C36,TI:CR,V;0)   298.15   26406-22*T ; 6000 N !
 PARAMETER G(LAVES_C36,V:CR,V;0)   298.15   26406-22*T ; 6000 N !
$
 PARAMETER G(LAVES_C36,TI,V:CR;0)   298.15   5000 ; 6000 N !
 PARAMETER G(LAVES_C36,TI,V:TI;0)   298.15   5000 ; 6000 N !
 PARAMETER G(LAVES_C36,TI,V:V;0)   298.15   5000 ; 6000 N !
$
 PARAMETER G(LAVES_C36,CR:TI,V;0)   298.15   5000 ; 6000 N !
 PARAMETER G(LAVES_C36,TI:TI,V;0)   298.15   5000 ; 6000 N !
 PARAMETER G(LAVES_C36,V:TI,V;0)   298.15   5000 ; 6000 N !
$-----------------------------------------------------------------------------
$   LAVES_C15
$-----------------------------------------------------------------------------
 PHASE  LAVES_C15 % 2 2 1    !
 CONSTITUENT  LAVES_C15 : CR,TI,V : CR,TI,V   :   !
 PARAMETER G(LAVES_C15,CR:CR;0)   298.15   15000+3*GHSERCR; 6000 N !
 PARAMETER G(LAVES_C15,CR:TI;0)   298.15
                              -29567.59+7.55767*T+2*GHSERCR+GHSERTI ; 6000 N !
 PARAMETER G(LAVES_C15,TI:CR;0)   298.15
                              59567.59-7.55767*T+GHSERCR+2*GHSERTI ; 6000 N !
 PARAMETER G(LAVES_C15,CR:V;0)   298.15
                                 4378+14*T+2*GHSERCR+GHSERVV ; 6000 N !
 PARAMETER G(LAVES_C15,V:CR;0)   298.15
                                 25622-14*T+GHSERCR+2*GHSERVV ; 6000 N !
 PARAMETER G(LAVES_C15,TI:V;0)   298.15
                                 4378+14*T+2*GHSERTI+GHSERVV ; 6000 N !
 PARAMETER G(LAVES_C15,V:TI;0)   298.15
                                    25622-14*T+GHSERTI+2*GHSERVV ; 6000 N !
 PARAMETER G(LAVES_C15,TI:TI;0)   298.15   15000+3*GHSERTI ; 6000 N !"
 PARAMETER G(LAVES_C15,V:V;0)   298.15   15000+3*GHSERVV ; 6000 N !
 PARAMETER G(LAVES_C15,CR:CR,TI;0)   298.15   50000 ; 6000 N !
 PARAMETER G(LAVES_C15,TI:CR,TI;0)   298.15   50000 ; 6000 N !
 PARAMETER G(LAVES_C15,CR,TI:CR;0)   298.15
                                 21340.62+13.54203*T ; 6000 N !
 PARAMETER G(LAVES_C15,CR,TI:TI;0)   298.15
                                 21340.62+13.54203*T ; 6000 N !
 PARAMETER G(LAVES_C15,V:CR,TI;0)   298.15   22514-18*T ; 6000 N !
 PARAMETER G(LAVES_C15,CR,TI:V;0)   298.15   22514-18*T ; 6000 N !
$
 PARAMETER G(LAVES_C15,CR,V:CR;0)   298.15   26406-22*T ; 6000 N !
 PARAMETER G(LAVES_C15,CR,V:TI;0)   298.15   26406-22*T ; 6000 N !
 PARAMETER G(LAVES_C15,CR,V:V;0)   298.15   26406-22*T ; 6000 N !
$
 PARAMETER G(LAVES_C15,CR:CR,V;0)   298.15   26406-22*T ; 6000 N !
 PARAMETER G(LAVES_C15,TI:CR,V;0)   298.15   26406-22*T ; 6000 N !
 PARAMETER G(LAVES_C15,V:CR,V;0)   298.15   26406-22*T ; 6000 N !
$
 PARAMETER G(LAVES_C15,TI,V:CR;0)   298.15   5000 ; 6000 N !
 PARAMETER G(LAVES_C15,TI,V:TI;0)   298.15   5000 ; 6000 N !
 PARAMETER G(LAVES_C15,TI,V:V;0)   298.15   5000 ; 6000 N !
$
 PARAMETER G(LAVES_C15,CR:TI,V;0)   298.15   5000 ; 6000 N !
 PARAMETER G(LAVES_C15,TI:TI,V;0)   298.15   5000 ; 6000 N !
 PARAMETER G(LAVES_C15,V:TI,V;0)   298.15   5000 ; 6000 N !
$-----------------------------------------------------------------------------
