$$$$$$$$$$$$$$$$$$$$$$$$$$$$$$$$$$$$$$$$$$$$$$$$$$$$$$$$$$$$$$$$$$$$$$$$$$$$$$
$ Date: 2018-12-18 11:03
$ Components: CU, MG, VA
$ Phases: CUMG2, FCC_A1, HCP_A3, LAVES_C15, LIQUID
$ Generated by brandon (pycalphad 0.7.1.post2)
$$$$$$$$$$$$$$$$$$$$$$$$$$$$$$$$$$$$$$$$$$$$$$$$$$$$$$$$$$$$$$$$$$$$$$$$$$$$$$

ELEMENT CU BLANK 0 0 0 !
ELEMENT MG BLANK 0 0 0 !
ELEMENT VA BLANK 0 0 0 !


FUNCTION GFCCCU 1.0 GHSERCU#; 10000.0 N !
FUNCTION GFCCMG 0.01 -2.18283562784578E-6*T**3 - 6.21802726222479E-5*T**2 +
   3.2404446864*T*LN(EXP(95.82831*T**(-1)) - 1.0) +
   21.6535319868*T*LN(EXP(247.8675*T**(-1)) - 1.0) + 0.246565697987779*T -
   8158.16393259455; 298.15 Y -1.393669E-6*T**3 + 0.0004858*T**2 -
   26.1849782*T*LN(T) + 142.775547*T - 5767.34 + 78950*T**(-1);
   922.205302616508 Y -34.3088*T*LN(T) + 203.816215*T - 11530.1836392866 +
   1.038192E+28*T**(-9); 3000.0 N !
FUNCTION GHCPCU 0.01 -3.38438862938597E-7*T**3 - 0.00121182291077191*T**2 +
   8.7685671186*T*LN(EXP(155.1404*T**(-1)) - 1.0) +
   16.1968683846*T*LN(EXP(290.9421*T**(-1)) - 1.0) - 0.321147237334052*T -
   10441.4393392344; 298.15 Y 1.29223E-7*T**3 - 0.00265684*T**2 -
   24.112392*T*LN(T) + 130.685235*T - 7170.458 + 52478*T**(-1); 1357.77 Y
   -31.38*T*LN(T) + 184.003828*T - 12942.0252504739 + 3.64167E+29*T**(-9);
   3200.0 N !
FUNCTION GHCPMG 1.0 GHSERMG#; 10000.0 N !
FUNCTION GHSERCU 0.01 -0.0010514335*T**2 +
   8.7685671186*T*LN(EXP(155.1404*T**(-1)) - 1.0) +
   16.1968683846*T*LN(EXP(290.9421*T**(-1)) - 1.0) - 11038.0904080745;
   103.57591 Y -2.15621953171362E-6*T**3 + 0.000288560900942072*T**2 -
   0.13879113947248*T*LN(T) + 8.7685671186*T*LN(EXP(155.1404*T**(-1)) - 1.0)
   + 16.1968683846*T*LN(EXP(290.9421*T**(-1)) - 1.0) + 0.574637617323048*T -
   11042.8822142647; 210.33309 Y -0.002432585*T**2 + 0.4335558862135*T*LN(T)
   + 8.7685671186*T*LN(EXP(155.1404*T**(-1)) - 1.0) +
   16.1968683846*T*LN(EXP(290.9421*T**(-1)) - 1.0) - 2.20049706600083*T -
   11002.7543747764; 1357.77 Y -31.38*T*LN(T) + 183.555483717662*T -
   12730.2995781851 + 7.42232714807953E+28*T**(-9); 3200.0 N !
FUNCTION GHSERMG 0.01 0.0047195465*T**2 +
   3.2404446864*T*LN(EXP(95.82831*T**(-1)) - 1.0) +
   21.6535319868*T*LN(EXP(247.8675*T**(-1)) - 1.0) - 10652.1012810789;
   36.71926 Y -1.53643054262276E-5*T**3 + 0.00810454205399037*T**2 -
   0.124294531845816*T*LN(T) + 3.2404446864*T*LN(EXP(95.82831*T**(-1)) - 1.0)
   + 21.6535319868*T*LN(EXP(247.8675*T**(-1)) - 1.0) + 0.385723396310737*T -
   10653.6226154894; 143.18844 Y -0.0050954035*T**2 + 1.765785080115*T*LN(T)
   + 3.2404446864*T*LN(EXP(95.82831*T**(-1)) - 1.0) +
   21.6535319868*T*LN(EXP(247.8675*T**(-1)) - 1.0) - 8.0518972866125*T -
   10563.4100984519; 922.205302616508 Y -34.3088*T*LN(T) + 204.341485347575*T
   - 13775.4156328263 + 9.4687256586798E+27*T**(-9); 10000.0 N !
FUNCTION GHSERVA 1 0; 10000 N !
FUNCTION GLIQCU 0.01 -3.40056501515466E-7*T**3 - 0.00121066539331185*T**2 +
   8.7685671186*T*LN(EXP(155.1404*T**(-1)) - 1.0) +
   16.1968683846*T*LN(EXP(290.9421*T**(-1)) - 1.0) - 10.033338832193*T +
   2379.36422209194; 298.15 Y -5.8489E-21*T**7 + 1.29223E-7*T**3 -
   0.00265684*T**2 - 24.112392*T*LN(T) + 120.973331*T + 5650.32106235287 +
   52478*T**(-1); 1357.77 Y -31.38*T*LN(T) + 173.881484*T + 409.498458129716;
   3200.0 N !
FUNCTION GLIQMG 0.01 -2.2050100179942E-6*T**3 - 4.63131660076452E-5*T**2 +
   3.2404446864*T*LN(EXP(95.82831*T**(-1)) - 1.0) +
   21.6535319868*T*LN(EXP(247.8675*T**(-1)) - 1.0) - 7.6943066168765*T -
   2555.58510336379; 298.15 Y -8.0176E-20*T**7 - 1.393669E-6*T**3 +
   0.0004858*T**2 - 26.1849782*T*LN(T) + 134.838617*T - 165.096999676889 +
   78950*T**(-1); 922.205302616508 Y -34.3088*T*LN(T) + 195.324057*T -
   5439.86911093575; 10000.0 N !
FUNCTION VV0000 1 -32539.5; 10000 N !
FUNCTION VV0001 1 8236.3; 10000 N !
FUNCTION VV0002 1 -14675.0; 10000 N !
FUNCTION VV0003 1 -24441.2; 10000 N !
FUNCTION VV0004 1 20149.6; 10000 N !
FUNCTION VV0005 1 46500.0; 10000 N !
FUNCTION VV0006 1 -39591.3; 10000 N !
FUNCTION VV0007 1 104160.0; 10000 N !
FUNCTION VV0008 1 21000.0; 10000 N !
FUNCTION VV0009 1 17772.0; 10000 N !
FUNCTION VV0010 1 21240.0; 10000 N !
FUNCTION VV0011 1 14321.1; 10000 N !
FUNCTION VV0012 1 -4923.18; 10000 N !
FUNCTION VV0013 1 -1962.8; 10000 N !
FUNCTION VV0014 1 -31626.6; 10000 N !

TYPE_DEFINITION % SEQ * !
DEFINE_SYSTEM_DEFAULT ELEMENT 2 !
DEFAULT_COMMAND DEFINE_SYSTEM_ELEMENT VA !

PHASE CUMG2 %  2 1 2 !
CONSTITUENT CUMG2 :CU:MG: !

PHASE FCC_A1 %  1 1 !
CONSTITUENT FCC_A1 :CU,MG: !

PHASE HCP_A3 %  1 1 !
CONSTITUENT HCP_A3 :CU,MG: !

PHASE LAVES_C15 %  2 2 1 !
CONSTITUENT LAVES_C15 :CU,MG:CU,MG: !

PHASE LIQUID %  1 1 !
CONSTITUENT LIQUID :CU,MG: !



$$$$$$$$$$$$$$$$$$$$$$$$$$$$$$$$$$$$$$$$$$$$$$$$$$$$$$$$$$$$$$$$$$$$$$$$$$$$$$
$                                     CU                                     $
$$$$$$$$$$$$$$$$$$$$$$$$$$$$$$$$$$$$$$$$$$$$$$$$$$$$$$$$$$$$$$$$$$$$$$$$$$$$$$

PARAMETER G(FCC_A1,CU;0) 1 GFCCCU#; 10000 N !
PARAMETER G(HCP_A3,CU;0) 1 GHCPCU#; 10000 N !
PARAMETER G(LAVES_C15,CU:CU;0) 1 3*GHSERCU# + VV0005#; 10000 N !
PARAMETER G(LIQUID,CU;0) 1 GLIQCU#; 10000 N !


$$$$$$$$$$$$$$$$$$$$$$$$$$$$$$$$$$$$$$$$$$$$$$$$$$$$$$$$$$$$$$$$$$$$$$$$$$$$$$
$                                     MG                                     $
$$$$$$$$$$$$$$$$$$$$$$$$$$$$$$$$$$$$$$$$$$$$$$$$$$$$$$$$$$$$$$$$$$$$$$$$$$$$$$

PARAMETER G(FCC_A1,MG;0) 1 GFCCMG#; 10000 N !
PARAMETER G(HCP_A3,MG;0) 1 GHCPMG#; 10000 N !
PARAMETER G(LAVES_C15,MG:MG;0) 1 3*GHSERMG# + VV0008#; 10000 N !
PARAMETER G(LIQUID,MG;0) 1 GLIQMG#; 10000 N !


$$$$$$$$$$$$$$$$$$$$$$$$$$$$$$$$$$$$$$$$$$$$$$$$$$$$$$$$$$$$$$$$$$$$$$$$$$$$$$
$                                   CU-MG                                    $
$$$$$$$$$$$$$$$$$$$$$$$$$$$$$$$$$$$$$$$$$$$$$$$$$$$$$$$$$$$$$$$$$$$$$$$$$$$$$$

PARAMETER G(CUMG2,CU:MG;0) 1 GHSERCU# + 2*GHSERMG# + VV0000#; 10000 N !
PARAMETER L(FCC_A1,CU,MG;0) 1 VV0002#; 10000 N !
PARAMETER L(FCC_A1,CU,MG;1) 1 VV0001#; 10000 N !
PARAMETER L(HCP_A3,CU,MG;0) 1 VV0004#; 10000 N !
PARAMETER L(HCP_A3,CU,MG;1) 1 VV0003#; 10000 N !
PARAMETER G(LAVES_C15,CU:MG;0) 1 2*GHSERCU# + GHSERMG# + VV0006#; 10000 N !
PARAMETER G(LAVES_C15,MG:CU;0) 1 GHSERCU# + 2*GHSERMG# + VV0007#; 10000 N !
PARAMETER L(LAVES_C15,CU:CU,MG;0) 1 VV0009#; 10000 N !
PARAMETER L(LAVES_C15,CU,MG:MG;0) 1 VV0010#; 10000 N !
PARAMETER L(LIQUID,CU,MG;0) 1 VV0014#; 10000 N !
PARAMETER L(LIQUID,CU,MG;1) 1 VV0013#; 10000 N !
PARAMETER L(LIQUID,CU,MG;2) 1 VV0012#; 10000 N !
PARAMETER L(LIQUID,CU,MG;3) 1 VV0011#; 10000 N !