$ From
$    Dilner, Mao, Selleby, Calphad 48 (2015) 95-105
$    doi: 10.1016/j.calphad.2014.11.004
$ For pycalphad, all upper temperature limts extended to T=10,000 K.
$ All phases except for ionic liquid for testing purposes.

$ Database file written 2014- 2-14
$ From database: SSUB4
 ELEMENT /-   ELECTRON_GAS              0.0000E+00  0.0000E+00  0.0000E+00!
 ELEMENT VA   VACUUM                    0.0000E+00  0.0000E+00  0.0000E+00!
 ELEMENT FE   BCC_A2                    5.5847E+01  4.4890E+03  2.7280E+01!
 ELEMENT MN   CBCC_A12                  5.4938E+01  4.9960E+03  3.2008E+01!
 ELEMENT S    ORTHORHOMBIC_S            3.2066E+01  0.0000E+00  0.0000E+00!

 SPECIES FE+2                        FE1/+2!
 SPECIES MN+2                        MN1/+2!
 SPECIES S-2                         S1/-2!

 FUNCTION GFELIQ     2.98150E+02  +GHSERFE#+12040.17-6.55843*T
     -3.67516E-21*T**7;  1.81100E+03  Y
      -10838.83+291.302*T-46*T*LN(T);  10000  N !
 FUNCTION GSSLIQ     2.98150E+02  -4001.549+77.889686*T-15.504*T*LN(T)
     -.018629*T**2-2.4942E-07*T**3-113945*T**(-1);  3.88360E+02  Y
      -5285183.35+118449.585*T-19762.4*T*LN(T)+32.79275*T**2
     -.0102214167*T**3+2.646735E+08*T**(-1);  4.28150E+02  Y
      -8174995.23+319914.078*T-57607.3*T*LN(T)+135.3045*T**2
     -.0529973333*T**3;  4.32250E+02  Y
      -219408.801+7758.83993*T-1371.85*T*LN(T)+2.845035*T**2
     -.00101380333*T**3;  4.53150E+02  Y
      +92539.872-1336.36627*T+202.958*T*LN(T)-.2531915*T**2+5.18835E-05*T**3
     -8202200*T**(-1);  7.17000E+02  Y
      -6889.972+176.35482*T-32*T*LN(T);  10000  N !
 FUNCTION GHSERMN    2.98150E+02  -8115.28+130.059*T-23.4582*T*LN(T)
     -.00734768*T**2+69827*T**(-1);  1.51900E+03  Y
      -28733.41+312.2648*T-48*T*LN(T)+1.656847E+30*T**(-9);  10000  N !
 FUNCTION GLIQMN     2.98150E+02  +17859.91-12.6208*T+GHSERMN#
     -4.41929E-21*T**7;  1.51900E+03  Y
      -9993.9+299.036*T-48*T*LN(T);  10000  N !
 FUNCTION GHSERFE    2.98150E+02  +1225.7+124.134*T-23.5143*T*LN(T)
     -.00439752*T**2-5.8927E-08*T**3+77359*T**(-1);  1.81100E+03  Y
      -25383.581+299.31255*T-46*T*LN(T)+2.29603E+31*T**(-9);  10000  N
     !
 FUNCTION GLIQFES    2.98150E+02  -104225-1.479*T;   10000   N !
 FUNCTION GMNS       2.98150E+02  -230200+239*T
     -47.28*T*LN(T)-0.00444*T**2;   10000   N !
 FUNCTION UN_ASS 298.15 0; 300 N !

 PHASE IONIC_LIQ:Y %  2 6   4 !
    CONSTITUENT IONIC_LIQ:Y :FE+2,MN+2 : S-2,VA,S :  !

   PARAMETER G(IONIC_LIQ,FE+2:S-2;0)  2.98150E+02  +2*GLIQFES#+2*GFELIQ#
  +2*GSSLIQ#;  10000  N REF2 !
   PARAMETER G(IONIC_LIQ,MN+2:S-2;0)  2.98150E+02
  +2*GMNS#+52220-27.88*T;   10000   N REF0 !
   PARAMETER G(IONIC_LIQ,FE+2:VA;0)  2.98150E+02  +GFELIQ#;   10000
  N REF1 !
   PARAMETER G(IONIC_LIQ,MN+2:VA;0)  2.98150E+02  +GLIQMN#;   10000
  N REF1 !
   PARAMETER G(IONIC_LIQ,S;0)  2.98150E+02  +GSSLIQ#;  10000  N REF1 !
   PARAMETER G(IONIC_LIQ,FE+2,MN+2:S-2;0)  2.98150E+02  20000;
  10000  N REF0 !
   PARAMETER G(IONIC_LIQ,FE+2,MN+2:S-2,VA;0)  2.98150E+02  -1e5;
  10000  N REF0 !
   PARAMETER G(IONIC_LIQ,FE+2,MN+2:S-2,VA;1)  2.98150E+02  -1e5;
  10000  N REF0 !
   PARAMETER G(IONIC_LIQ,FE+2,MN+2:S-2,VA;2)  2.98150E+02  +1e5;
  10000  N REF0 !
   PARAMETER G(IONIC_LIQ,FE+2,MN+2:S-2,S;0)  2.98150E+02  300000;
  10000  N REF0 !
   PARAMETER G(IONIC_LIQ,FE+2:S-2,VA;0)  2.98150E+02  +103758-46.3734*T;
  10000  N REF2 !
   PARAMETER G(IONIC_LIQ,FE+2:S-2,VA;1)  2.98150E+02  -27530;  10000
  N REF2 !
   PARAMETER G(IONIC_LIQ,FE+2:S-2,S;0)  2.98150E+02  +96626-43.614*T;
  10000  N REF2 !
   PARAMETER G(IONIC_LIQ,FE+2:S-2,S;1)  2.98150E+02  -145966+49.429*T;
  10000  N REF2 !
   PARAMETER G(IONIC_LIQ,MN+2:S-2,VA;0)  2.98150E+02  137000;
  10000  N REF0 !
   PARAMETER G(IONIC_LIQ,MN+2:S-2,VA;1)  2.98150E+02  -11400;
  10000  N REF0 !
   PARAMETER G(IONIC_LIQ,MN+2:S-2,S;0)  2.98150E+02  +96626-43.614*T;
  10000  N REF0 !
   PARAMETER G(IONIC_LIQ,MN+2:S-2,S;1)  2.98150E+02  -145966+49.429*T;
  10000  N REF0 !
   PARAMETER G(IONIC_LIQ,FE+2,MN+2:VA;0)  2.98150E+02  -3950+.489*T;
  10000   N REF3 !
   PARAMETER G(IONIC_LIQ,FE+2,MN+2:VA;1)  2.98150E+02  1145;   10000
  N REF3 !