$ FOR TESTING PURPOSES ONLY -- NOT FOR RESEARCH
$ NO INTERACTION PARAMETERS
 ELEMENT /-   ELECTRON_GAS              0.0000E+00  0.0000E+00  0.0000E+00!
 ELEMENT VA   VACUUM                    0.0000E+00  0.0000E+00  0.0000E+00!
 ELEMENT FE   BCC_A2                    5.5847E+01  4.4890E+03  2.7280E+01!
 ELEMENT MN   CBCC_A12                  5.4938E+01  4.9960E+03  3.2008E+01!
 FUNCTION TEMP      0.99 +T**(-1); 6000 N !
 FUNCTION RTEMP     0.99 +R#**(-1)*TEMP#; 6000 N !
 FUNCTION ZERO      0.99 +0.0; 6000 N !
 FUNCTION INTR      0.99 +1000; 6000 N !
 FUNCTION INFINITE  0.99 +1000000; 6000 N !
 FUNCTION G2STFCC1  0.99 +9023.52375-2.4952226*T; 6000 N !
 FUNCTION G2STFCC2  0.99 -G2STFCC1#*RTEMP#; 6000 N !
 FUNCTION G2STFCC3  0.99 +1+1*EXP(G2STFCC2#); 6000 N !
 FUNCTION G2STFCC4  0.99 +1*LN(G2STFCC3#); 6000 N !
 FUNCTION G2STFCC   0.99 -R#*T*G2STFCC4#; 6000 N !
 FUNCTION GGBCCL    0.99 -8410.26596-.0032390815*T**2-3.3191338E-14*T**5;
     6000 N !
 FUNCTION GGBCCH    0.99 -33208.4173+165.40504*T-21.0474823*T*LN(T)
     -2.781828E+18*T**(-5)+4.2811788E+37*T**(-11); 6000 N !
 FUNCTION GEIN309   0.99 +0.0; 6000 N !
 FUNCTION GGFCCL    0.99 -2615.00904-.0027933375*T**2-2.1239087E-14*T**5
     +G2STFCC#; 6000 N !
 FUNCTION GGFCCH    0.99 -32389.5438+168.31394*T-20.9834791*T*LN(T)
     +9.2444598E+18*T**(-5)-1.4750509E+37*T**(-11)+G2STFCC#; 6000 N !
 FUNCTION GHSERFE   0.99 +GGBCCL#+8927.2831-9.7228331*T; 1811 Y
      +GGBCCH#+8927.2831-9.7228331*T; 6000 N !
 FUNCTION GGHCPL    0.99 -3307.07993-.00431797569*T**2-2.1239086E-14*T**5;
     6000 N !
 FUNCTION GGHCPH    0.99 -24924.6659+161.764208*T-21.0325858*T*LN(T)
     -4.71013343E+18*T**(-5); 6000 N !
 FUNCTION TECBCCMN  0.99 +287.60608; 6000 N !
 FUNCTION TECUBMN   0.99 +247.87895; 6000 N !
 FUNCTION TEFCCMN   0.99 +257.58049; 6000 N !
 FUNCTION TEBCCMN   0.99 +265.03333; 6000 N !
 FUNCTION TELIQMN   0.99 +119.579259; 6000 N !
 FUNCTION TEHCPMN   0.99 +438.579784; 6000 N !
 FUNCTION BETA1     0.99 +1.22; 6000 N !
 FUNCTION BETA2     0.99 +1.62; 6000 N !
 FUNCTION BETA3     0.99 +1.27; 6000 N !
 FUNCTION MNCBCCB   0.99 +1*LN(BETA1#); 6000 N !
 FUNCTION MNFCCB    0.99 +1*LN(BETA2#); 6000 N !
 FUNCTION MNBCCB    0.99 +1*LN(BETA3#); 6000 N !
 FUNCTION GGMNCBCL  0.99 -8621.707-.0054695069*T**2+3.6645644E-08*T**3
     -2.588845E-14*T**5; 6000 N !
 FUNCTION GGMNCBCH  0.99 -25954.328+130.73341*T+20.178863*T
     -20.178863*T*LN(T)-7.4173873E+17*T**(-5)+3.5722E+36*T**(-11); 6000 N !
 FUNCTION GGMNCUBL  0.99 -6181.4708-.0057218755*T**2+8.9632678E-12*T**3
     -1.9360399E-14*T**5; 6000 N !
 FUNCTION GGMNCUBH  0.99 -24465.161+136.70198*T+21.095719*T
     -21.095719*T*LN(T)-3.967E+17*T**(-5)+2.9953E+36*T**(-11); 6000 N !
 FUNCTION GGMNFCCL  0.99 -5356.328-.0044627084*T**2-3.7906096E-10*T**4
     +8.1018765E-14*T**5; 6000 N !
 FUNCTION GGMNFCCH  0.99 -22440.434+135.25456*T+20.797951*T
     -20.797951*T*LN(T)-1.8964E+18*T**(-5)+5.208E+36*T**(-11); 6000 N !
 FUNCTION GGMNBCCL  0.99 -4692.6774-.006846492*T**2-3.2311349E-15*T**5;
     6000 N !
 FUNCTION GGMNBCCH  0.99 -18620.432+127.31728*T+20.301009*T
     -20.301009*T*LN(T)-2.2035E+18*T**(-5)+5.1886E+36*T**(-11); 6000 N !
 FUNCTION GGMNHCPL  0.99 -9755.88935-.00699764166*T**2+4.12888434E-15*T**5;
      6000 N !
 FUNCTION GGMNHCPH  0.99 -25379.581+133.19315*T+21.0957581*T
     -21.0957581*T*LN(T)-1.1043E+18*T**(-5)+3.3993E+36*T**(-11); 6000 N !
 FUNCTION UN_ASS    0.99 +0.0; 300 N !
 TYPE_DEFINITION % SEQ *!
 DEFINE_SYSTEM_DEFAULT ELEMENT 2 !
 DEFAULT_COMMAND DEF_SYS_ELEMENT VA /- !
 TYPE_DEFINITION * GES A_P_D LIQUID MAGNETIC   0.0    0.25 !
 PHASE LIQUID  %*  2 1   1 !
    CONSTITUENT LIQUID  :FE,MN : VA :  !
   PARAMETER G(LIQUID,FE:VA;0)            0.99 +7103.20801
  -.0019730116*T**2+1392.1182-8.2584018*T; 6000 N REF0 !
   PARAMETER TC(LIQUID,FE:VA;0)           0.99 +200; 6000 N REF0 !
   PARAMETER NT(LIQUID,FE:VA;0)           0.99 -200; 6000 N REF0 !
   PARAMETER BMAGN(LIQUID,FE:VA;0)        0.99 +1.7; 6000 N REF0 !
   PARAMETER THETA(LIQUID,FE:VA;0)        0.99 +1*LN(245); 6000 N REF0 !
   PARAMETER GD(LIQUID,FE:VA;0)           0.99 +42754.9478-7.624*T
  -1.08230446*T*LN(T); 6000 N REF0 !
   PARAMETER G(LIQUID,MN:VA;0)            0.99 +13256.8283
  -.0017557494*T**2; 6000 N REF0 !
   PARAMETER THETA(LIQUID,MN:VA;0)        0.99 +1*LN(TELIQMN#); 6000 N
  REF0 !
   PARAMETER GD(LIQUID,MN:VA;0)           0.99 +50493.6966-8.314*T
  -1.07778322*T*LN(T); 6000 N REF0 !
 LIST_OF_REFERENCES
 NUMBER  SOURCE
  !