$ NOT FOR RESEARCH -- TESTING ONLY $
$
ELEMENT FE BCC_A2 55.847 4489.0 27.28 !
ELEMENT NI FCC_A1 58.69 4787.0 29.796 !
ELEMENT VA VACUUM 0.0 0.0 0.0 !


FUNCTION ABF0AAA 298.15 -0.75*DGF0A3B# + 0.75*DGF1A3B#; 6000.0 N !
FUNCTION ABF0AAB 298.15 -0.25*DGF0A3B# - 0.5*DGF0AB# - 0.25*DGF1A3B# +
   0.5*DGF1AB#; 6000.0 N !
FUNCTION ABF0ABB 298.15 -0.5*DGF0AB# - 0.25*DGF0B3A# - 0.5*DGF1AB# +
   0.25*DGF1B3A#; 6000.0 N !
FUNCTION ABF0BBB 298.15 -0.75*DGF0B3A# - 0.75*DGF1B3A#; 6000.0 N !
FUNCTION ABF1AAA 298.15 -0.75*DGF1A3B#; 6000.0 N !
FUNCTION ABF1AAB 298.15 -0.25*DGF1A3B# - 0.5*DGF1AB#; 6000.0 N !
FUNCTION ABF1ABB 298.15 -0.5*DGF1AB# - 0.25*DGF1B3A#; 6000.0 N !
FUNCTION ABF1BBB 298.15 -0.75*DGF1B3A#; 6000.0 N !
FUNCTION BF0LAAA 298.15 -0.75*DBF0A3B# + 0.75*DBF1A3B#; 6000.0 N !
FUNCTION BF0LAAB 298.15 -0.25*DBF0A3B# - 0.5*DBF0AB# - 0.25*DBF1A3B# +
   0.5*DBF1AB#; 6000.0 N !
FUNCTION BF0LABB 298.15 -0.5*DBF0AB# - 0.25*DBF0B3A# - 0.5*DBF1AB# +
   0.25*DBF1B3A#; 6000.0 N !
FUNCTION BF0LBBB 298.15 -0.75*DBF0B3A# - 0.75*DBF1B3A#; 6000.0 N !
FUNCTION BF1LAAA 298.15 -0.75*DBF1A3B#; 6000.0 N !
FUNCTION BF1LAAB 298.15 -0.75*DBF1A3B#; 6000.0 N !
FUNCTION BF1LABB 298.15 -0.5*DBF1AB# - 0.25*DBF1B3A#; 6000.0 N !
FUNCTION BF1LBBB 298.15 -0.75*DBF1B3A#; 6000.0 N !
FUNCTION BLFAB0 298.15 5; 6000.0 N !
FUNCTION BLFAB1 298.15 3; 6000.0 N !
FUNCTION BLFAB2 298.15 2.006; 6000.0 N !
FUNCTION BLFAB3 298.15 -180.828; 6000.0 N !
FUNCTION BLFAB4 298.15 12.686; 6000.0 N !
FUNCTION BMAFCC 298.15 -7.1; 6000.0 N !
FUNCTION BMBFCC 298.15 2.62; 6000.0 N !
FUNCTION DBF0A3B 298.15 2.115; 6000.0 N !
FUNCTION DBF0AB 298.15 7.115; 6000.0 N !
FUNCTION DBF0B3A 298.15 20.115; 6000.0 N !
FUNCTION DBF1A3B 298.15 0.0; 6000.0 N !
FUNCTION DBF1AB 298.15 0.0; 6000.0 N !
FUNCTION DBF1B3A 298.15 0.0; 6000.0 N !
FUNCTION DGF0A3B 298.15 44470.65465; 6000.0 N !
FUNCTION DGF0AB 298.15 1320; 6000.0 N !
FUNCTION DGF0B3A 298.15 -3001.01879; 6000.0 N !
FUNCTION DGF1A3B 298.15 0.0; 6000.0 N !
FUNCTION DGF1AB 298.15 0.0; 6000.0 N !
FUNCTION DGF1B3A 298.15 166.93282; 6000.0 N !

FUNCTION DTF0A3B 298.15 945; 6000.0 N !
FUNCTION DTF0AB 298.15 122; 6000.0 N !
FUNCTION DTF0B3A 298.15 879; 6000.0 N !
FUNCTION DTF1A3B 298.15 0.0; 6000.0 N !
FUNCTION DTF1AB 298.15 0.0; 6000.0 N !
FUNCTION DTF1B3A 298.15 0.0; 6000.0 N !

FUNCTION TF0LBBB 298.15 -0.75*DTF0B3A# - 0.75*DTF1B3A#; 6000.0 N !
FUNCTION TF1LAAA 298.15 -0.75*DTF1A3B#; 6000.0 N !
FUNCTION TF1LAAB 298.15 -0.25*DTF1A3B# - 0.5*DTF1AB#; 6000.0 N !
FUNCTION TF1LABB 298.15 -0.5*DTF1AB# - 0.25*DTF1B3A#; 6000.0 N !
FUNCTION TF1LBBB 298.15 -0.75*DTF1B3A#; 6000.0 N !
FUNCTION TLFAB0 298.15 1295.6; 6000.0 N !
FUNCTION TLFAB1 298.15 -248.8; 6000.0 N !
FUNCTION TLFAB2 298.15 -1086.0; 6000.0 N !
FUNCTION TLFAB3 298.15 -2367.6; 6000.0 N !
FUNCTION TLFAB4 298.15 -3642.1; 6000.0 N !
FUNCTION TLFAB5 298.15 -7424.0; 6000.0 N !
FUNCTION GLFAB0 298.15 1.2333*T - 15690.2618; 6000.0 N !
FUNCTION GLFAB1 298.15 7781.85057; 6000.0 N !
FUNCTION GLFAB2 298.15 -1649.56071; 6000.0 N !
FUNCTION TCAFCC 298.15 -201; 6000.0 N !
FUNCTION TCBFCC 298.15 625; 6000.0 N !
FUNCTION TF0LAAA 298.15 -0.75*DTF0A3B# + 0.75*DTF1A3B#; 6000.0 N !
FUNCTION TF0LAAB 298.15 -0.25*DTF0A3B# - 0.5*DTF0AB# - 0.25*DTF1A3B# +
   0.5*DTF1AB#; 6000.0 N !
FUNCTION TF0LABB 298.15 -0.5*DTF0AB# - 0.25*DTF0B3A# - 0.5*DTF1AB# +
   0.25*DTF1B3A#; 6000.0 N !

FUNCTION GFCCFE 298.15 0.00064*T**2 - 1.15*T*LN(T) + 8.282*T + GHSERFE# -
   1462.4; 1811.0 Y 0.94001*T + GHSERFE# - 1713.815 + 4.9251E+30*T**(-9);
   6000.0 N !

FUNCTION GHSERFE 298.15 -5.8927E-8*T**3 - 0.00439752*T**2 - 23.5143*T*LN(T) +
   124.134*T + 1225.7 + 77359*T**(-1); 1811.0 Y -46*T*LN(T) + 299.31255*T -
   25383.581 + 2.29603E+31*T**(-9); 6000.0 N !

FUNCTION GHSERNI 273.0 -0.0048407*T**2 - 22.096*T*LN(T) + 117.854*T -
   5179.159; 1728.0 Y -43.1*T*LN(T) + 279.135*T - 27840.655 +
   1.12754E+31*T**(-9); 6000.0 N !


TYPE_DEFINITION % SEQ * !
DEFINE_SYSTEM_DEFAULT ELEMENT 2 !
DEFAULT_COMMAND DEFINE_SYSTEM_ELEMENT VA !

TYPE_DEFINITION * GES AMEND_PHASE_DESCRIPTION FCC_A1 MAGNETIC -3.0 0.28 !
TYPE_DEFINITION ' GES AMEND_PHASE_DESCRIPTION ORD_FCC DISORDERED_PART FCC_A1 !
TYPE_DEFINITION A GES AMEND_PHASE_DESCRIPTION ORD_FCC MAGNETIC -3.0 0.28 !

PHASE FCC_A1 %*  2 1.0 1.0 !
CONSTITUENT FCC_A1 :FE,NI:VA: !

PHASE ORD_FCC %'A  5 0.25 0.25 0.25 0.25 1.0 !
CONSTITUENT ORD_FCC :FE,NI:FE,NI
:FE,NI:FE,NI:VA: !


$$$$$$$$$$$$$$$$$$$$$$$$$$$$$$$$$$$$$$$$$$$$$$$$$$$$$$$$$$$$$$$$$$$$$$$$$$$$$$
$                                     FE                                     $
$$$$$$$$$$$$$$$$$$$$$$$$$$$$$$$$$$$$$$$$$$$$$$$$$$$$$$$$$$$$$$$$$$$$$$$$$$$$$$

PARAMETER BMAGN(FCC_A1,FE:VA;0) 298.15 -2.1; 6000.0 N !
PARAMETER G(FCC_A1,FE:VA;0) 273.0 GFCCFE; 6000.0 N !
PARAMETER NT(FCC_A1,FE:VA;0) 298.15 201; 6000.0 N !
PARAMETER TC(FCC_A1,FE:VA;0) 298.15 -201; 6000.0 N !


$$$$$$$$$$$$$$$$$$$$$$$$$$$$$$$$$$$$$$$$$$$$$$$$$$$$$$$$$$$$$$$$$$$$$$$$$$$$$$
$                                     NI                                     $
$$$$$$$$$$$$$$$$$$$$$$$$$$$$$$$$$$$$$$$$$$$$$$$$$$$$$$$$$$$$$$$$$$$$$$$$$$$$$$

PARAMETER BMAGN(FCC_A1,NI:VA;0) 298.15 0.52; 6000.0 N !
PARAMETER G(FCC_A1,NI:VA;0) 298.15 GHSERNI#; 6000.0 N !
PARAMETER TC(FCC_A1,NI:VA;0) 298.15 633; 6000.0 N !





$$$$$$$$$$$$$$$$$$$$$$$$$$$$$$$$$$$$$$$$$$$$$$$$$$$$$$$$$$$$$$$$$$$$$$$$$$$$$$
$                                   FE-NI                                    $
$$$$$$$$$$$$$$$$$$$$$$$$$$$$$$$$$$$$$$$$$$$$$$$$$$$$$$$$$$$$$$$$$$$$$$$$$$$$$$

PARAMETER BMAGN(FCC_A1,FE,NI:VA;0) 298.15 BLFAB0#; 6000.0 N !
PARAMETER BMAGN(FCC_A1,FE,NI:VA;1) 298.15 BLFAB1#; 6000.0 N !
PARAMETER BMAGN(FCC_A1,FE,NI:VA;2) 298.15 BLFAB2#; 6000.0 N !
PARAMETER BMAGN(FCC_A1,FE,NI:VA;3) 298.15 BLFAB3#; 6000.0 N !
PARAMETER BMAGN(FCC_A1,FE,NI:VA;4) 298.15 BLFAB4#; 6000.0 N !
PARAMETER G(FCC_A1,FE,NI:VA;0) 298.15 GLFAB0#; 6000.0 N !
PARAMETER G(FCC_A1,FE,NI:VA;1) 298.15 GLFAB1#; 6000.0 N !
PARAMETER G(FCC_A1,FE,NI:VA;2) 298.15 GLFAB2#; 6000.0 N !
PARAMETER TC(FCC_A1,FE,NI:VA;0) 298.15 TLFAB0#; 6000.0 N !
PARAMETER TC(FCC_A1,FE,NI:VA;1) 298.15 TLFAB1#; 6000.0 N !
PARAMETER TC(FCC_A1,FE,NI:VA;2) 298.15 TLFAB2#; 6000.0 N !
PARAMETER TC(FCC_A1,FE,NI:VA;3) 298.15 TLFAB3#; 6000.0 N !
PARAMETER TC(FCC_A1,FE,NI:VA;4) 298.15 TLFAB4#; 6000.0 N !
PARAMETER TC(FCC_A1,FE,NI:VA;5) 298.15 TLFAB5#; 6000.0 N !

PARAMETER BMAGN(ORD_FCC,FE:FE:FE:NI:VA;0) 298.15 0.75*DBF0A3B#; 6000.0 N !
PARAMETER BMAGN(ORD_FCC,FE:FE:NI:FE:VA;0) 298.15 0.75*DBF0A3B#; 6000.0 N !
PARAMETER BMAGN(ORD_FCC,FE:FE:NI:NI:VA;0) 298.15 DBF0AB#; 6000.0 N !
PARAMETER BMAGN(ORD_FCC,FE:NI:FE:FE:VA;0) 298.15 0.75*DBF0A3B#; 6000.0 N !
PARAMETER BMAGN(ORD_FCC,FE:NI:FE:NI:VA;0) 298.15 DBF0AB#; 6000.0 N !
PARAMETER BMAGN(ORD_FCC,FE:NI:NI:FE:VA;0) 298.15 DBF0AB#; 6000.0 N !
PARAMETER BMAGN(ORD_FCC,FE:NI:NI:NI:VA;0) 298.15 0.75*DBF0B3A#; 6000.0 N !
PARAMETER BMAGN(ORD_FCC,NI:FE:FE:FE:VA;0) 298.15 0.75*DBF0A3B#; 6000.0 N !
PARAMETER BMAGN(ORD_FCC,NI:FE:FE:NI:VA;0) 298.15 DBF0AB#; 6000.0 N !
PARAMETER BMAGN(ORD_FCC,NI:FE:NI:FE:VA;0) 298.15 DBF0AB#; 6000.0 N !
PARAMETER BMAGN(ORD_FCC,NI:FE:NI:NI:VA;0) 298.15 0.75*DBF0B3A#; 6000.0 N !
PARAMETER BMAGN(ORD_FCC,NI:NI:FE:FE:VA;0) 298.15 DBF0AB#; 6000.0 N !
PARAMETER BMAGN(ORD_FCC,NI:NI:FE:NI:VA;0) 298.15 0.75*DBF0B3A#; 6000.0 N !
PARAMETER BMAGN(ORD_FCC,NI:NI:NI:FE:VA;0) 298.15 0.75*DBF0B3A#; 6000.0 N !
PARAMETER BMAGN(ORD_FCC,FE:FE:FE:FE,NI:VA;0) 298.15 BF0LAAA#; 6000.0 N !
PARAMETER BMAGN(ORD_FCC,FE:FE:FE:FE,NI:VA;1) 298.15 BF1LAAA#; 6000.0 N !
PARAMETER BMAGN(ORD_FCC,FE:FE:FE,NI:FE:VA;0) 298.15 BF0LAAA#; 6000.0 N !
PARAMETER BMAGN(ORD_FCC,FE:FE:FE,NI:FE:VA;1) 298.15 BF1LAAA#; 6000.0 N !
PARAMETER BMAGN(ORD_FCC,FE:FE:FE,NI:NI:VA;0) 298.15 BF0LAAB#; 6000.0 N !
PARAMETER BMAGN(ORD_FCC,FE:FE:FE,NI:NI:VA;1) 298.15 BF1LAAB#; 6000.0 N !
PARAMETER BMAGN(ORD_FCC,FE:FE:NI:FE,NI:VA;0) 298.15 BF0LAAB#; 6000.0 N !
PARAMETER BMAGN(ORD_FCC,FE:FE:NI:FE,NI:VA;1) 298.15 BF1LAAB#; 6000.0 N !
PARAMETER BMAGN(ORD_FCC,FE:FE,NI:FE:FE:VA;0) 298.15 BF0LAAA#; 6000.0 N !
PARAMETER BMAGN(ORD_FCC,FE:FE,NI:FE:FE:VA;1) 298.15 BF1LAAA#; 6000.0 N !
PARAMETER BMAGN(ORD_FCC,FE:FE,NI:FE:NI:VA;0) 298.15 BF0LAAB#; 6000.0 N !
PARAMETER BMAGN(ORD_FCC,FE:FE,NI:FE:NI:VA;1) 298.15 BF1LAAB#; 6000.0 N !
PARAMETER BMAGN(ORD_FCC,FE:FE,NI:NI:FE:VA;0) 298.15 BF0LAAB#; 6000.0 N !
PARAMETER BMAGN(ORD_FCC,FE:FE,NI:NI:FE:VA;1) 298.15 BF1LAAB#; 6000.0 N !
PARAMETER BMAGN(ORD_FCC,FE:FE,NI:NI:NI:VA;0) 298.15 BF0LABB#; 6000.0 N !
PARAMETER BMAGN(ORD_FCC,FE:FE,NI:NI:NI:VA;1) 298.15 BF1LABB#; 6000.0 N !
PARAMETER BMAGN(ORD_FCC,FE:NI:FE:FE,NI:VA;0) 298.15 BF0LAAB#; 6000.0 N !
PARAMETER BMAGN(ORD_FCC,FE:NI:FE:FE,NI:VA;1) 298.15 BF1LAAB#; 6000.0 N !
PARAMETER BMAGN(ORD_FCC,FE:NI:FE,NI:FE:VA;0) 298.15 BF0LAAB#; 6000.0 N !
PARAMETER BMAGN(ORD_FCC,FE:NI:FE,NI:FE:VA;1) 298.15 BF1LAAB#; 6000.0 N !
PARAMETER BMAGN(ORD_FCC,FE:NI:FE,NI:NI:VA;0) 298.15 BF0LABB#; 6000.0 N !
PARAMETER BMAGN(ORD_FCC,FE:NI:FE,NI:NI:VA;1) 298.15 BF1LABB#; 6000.0 N !
PARAMETER BMAGN(ORD_FCC,FE:NI:NI:FE,NI:VA;0) 298.15 BF0LABB#; 6000.0 N !
PARAMETER BMAGN(ORD_FCC,FE:NI:NI:FE,NI:VA;1) 298.15 BF1LABB#; 6000.0 N !
PARAMETER BMAGN(ORD_FCC,FE,NI:FE:FE:FE:VA;0) 298.15 BF0LAAA#; 6000.0 N !
PARAMETER BMAGN(ORD_FCC,FE,NI:FE:FE:FE:VA;1) 298.15 BF1LAAA#; 6000.0 N !
PARAMETER BMAGN(ORD_FCC,FE,NI:FE:FE:NI:VA;0) 298.15 BF0LAAB#; 6000.0 N !
PARAMETER BMAGN(ORD_FCC,FE,NI:FE:FE:NI:VA;1) 298.15 BF1LAAB#; 6000.0 N !
PARAMETER BMAGN(ORD_FCC,FE,NI:FE:NI:FE:VA;0) 298.15 BF0LAAB#; 6000.0 N !
PARAMETER BMAGN(ORD_FCC,FE,NI:FE:NI:FE:VA;1) 298.15 BF1LAAB#; 6000.0 N !
PARAMETER BMAGN(ORD_FCC,FE,NI:FE:NI:NI:VA;0) 298.15 BF0LABB#; 6000.0 N !
PARAMETER BMAGN(ORD_FCC,FE,NI:FE:NI:NI:VA;1) 298.15 BF1LABB#; 6000.0 N !
PARAMETER BMAGN(ORD_FCC,FE,NI:NI:FE:FE:VA;0) 298.15 BF0LAAB#; 6000.0 N !
PARAMETER BMAGN(ORD_FCC,FE,NI:NI:FE:FE:VA;1) 298.15 BF1LAAB#; 6000.0 N !
PARAMETER BMAGN(ORD_FCC,FE,NI:NI:FE:NI:VA;0) 298.15 BF0LABB#; 6000.0 N !
PARAMETER BMAGN(ORD_FCC,FE,NI:NI:FE:NI:VA;1) 298.15 BF1LABB#; 6000.0 N !
PARAMETER BMAGN(ORD_FCC,FE,NI:NI:NI:FE:VA;0) 298.15 BF0LABB#; 6000.0 N !
PARAMETER BMAGN(ORD_FCC,FE,NI:NI:NI:FE:VA;1) 298.15 BF1LABB#; 6000.0 N !
PARAMETER BMAGN(ORD_FCC,FE,NI:NI:NI:NI:VA;0) 298.15 BF0LBBB#; 6000.0 N !
PARAMETER BMAGN(ORD_FCC,FE,NI:NI:NI:NI:VA;1) 298.15 BF1LBBB#; 6000.0 N !
PARAMETER BMAGN(ORD_FCC,NI:FE:FE:FE,NI:VA;0) 298.15 BF0LAAB#; 6000.0 N !
PARAMETER BMAGN(ORD_FCC,NI:FE:FE:FE,NI:VA;1) 298.15 BF1LAAB#; 6000.0 N !
PARAMETER BMAGN(ORD_FCC,NI:FE:FE,NI:FE:VA;0) 298.15 BF0LAAB#; 6000.0 N !
PARAMETER BMAGN(ORD_FCC,NI:FE:FE,NI:FE:VA;1) 298.15 BF1LAAB#; 6000.0 N !
PARAMETER BMAGN(ORD_FCC,NI:FE:FE,NI:NI:VA;0) 298.15 BF0LABB#; 6000.0 N !
PARAMETER BMAGN(ORD_FCC,NI:FE:FE,NI:NI:VA;1) 298.15 BF1LABB#; 6000.0 N !
PARAMETER BMAGN(ORD_FCC,NI:FE:NI:FE,NI:VA;0) 298.15 BF0LABB#; 6000.0 N !
PARAMETER BMAGN(ORD_FCC,NI:FE:NI:FE,NI:VA;1) 298.15 BF1LABB#; 6000.0 N !
PARAMETER BMAGN(ORD_FCC,NI:FE,NI:FE:FE:VA;0) 298.15 BF0LAAB#; 6000.0 N !
PARAMETER BMAGN(ORD_FCC,NI:FE,NI:FE:FE:VA;1) 298.15 BF1LAAB#; 6000.0 N !
PARAMETER BMAGN(ORD_FCC,NI:FE,NI:FE:NI:VA;0) 298.15 BF0LABB#; 6000.0 N !
PARAMETER BMAGN(ORD_FCC,NI:FE,NI:FE:NI:VA;1) 298.15 BF1LABB#; 6000.0 N !
PARAMETER BMAGN(ORD_FCC,NI:FE,NI:NI:FE:VA;0) 298.15 BF0LABB#; 6000.0 N !
PARAMETER BMAGN(ORD_FCC,NI:FE,NI:NI:FE:VA;1) 298.15 BF1LABB#; 6000.0 N !
PARAMETER BMAGN(ORD_FCC,NI:FE,NI:NI:NI:VA;0) 298.15 BF0LBBB#; 6000.0 N !
PARAMETER BMAGN(ORD_FCC,NI:FE,NI:NI:NI:VA;1) 298.15 BF1LBBB#; 6000.0 N !
PARAMETER BMAGN(ORD_FCC,NI:NI:FE:FE,NI:VA;0) 298.15 BF0LABB#; 6000.0 N !
PARAMETER BMAGN(ORD_FCC,NI:NI:FE:FE,NI:VA;1) 298.15 BF1LABB#; 6000.0 N !
PARAMETER BMAGN(ORD_FCC,NI:NI:FE,NI:FE:VA;0) 298.15 BF0LABB#; 6000.0 N !
PARAMETER BMAGN(ORD_FCC,NI:NI:FE,NI:FE:VA;1) 298.15 BF1LABB#; 6000.0 N !
PARAMETER BMAGN(ORD_FCC,NI:NI:FE,NI:NI:VA;0) 298.15 BF0LBBB#; 6000.0 N !
PARAMETER BMAGN(ORD_FCC,NI:NI:FE,NI:NI:VA;1) 298.15 BF1LBBB#; 6000.0 N !
PARAMETER BMAGN(ORD_FCC,NI:NI:NI:FE,NI:VA;0) 298.15 BF0LBBB#; 6000.0 N !
PARAMETER BMAGN(ORD_FCC,NI:NI:NI:FE,NI:VA;1) 298.15 BF1LBBB#; 6000.0 N !
PARAMETER G(ORD_FCC,FE:FE:FE:NI:VA;0) 298.15 0.75*DGF0A3B#; 6000.0 N !
PARAMETER G(ORD_FCC,FE:FE:NI:FE:VA;0) 298.15 0.75*DGF0A3B#; 6000.0 N !
PARAMETER G(ORD_FCC,FE:FE:NI:NI:VA;0) 298.15 DGF0AB#; 6000.0 N !
PARAMETER G(ORD_FCC,FE:NI:FE:FE:VA;0) 298.15 0.75*DGF0A3B#; 6000.0 N !
PARAMETER G(ORD_FCC,FE:NI:FE:NI:VA;0) 298.15 DGF0AB#; 6000.0 N !
PARAMETER G(ORD_FCC,FE:NI:NI:FE:VA;0) 298.15 DGF0AB#; 6000.0 N !
PARAMETER G(ORD_FCC,FE:NI:NI:NI:VA;0) 298.15 0.75*DGF0B3A#; 6000.0 N !
PARAMETER G(ORD_FCC,NI:FE:FE:FE:VA;0) 298.15 0.75*DGF0A3B#; 6000.0 N !
PARAMETER G(ORD_FCC,NI:FE:FE:NI:VA;0) 298.15 DGF0AB#; 6000.0 N !
PARAMETER G(ORD_FCC,NI:FE:NI:FE:VA;0) 298.15 DGF0AB#; 6000.0 N !
PARAMETER G(ORD_FCC,NI:FE:NI:NI:VA;0) 298.15 0.75*DGF0B3A#; 6000.0 N !
PARAMETER G(ORD_FCC,NI:NI:FE:FE:VA;0) 298.15 DGF0AB#; 6000.0 N !
PARAMETER G(ORD_FCC,NI:NI:FE:NI:VA;0) 298.15 0.75*DGF0B3A#; 6000.0 N !
PARAMETER G(ORD_FCC,NI:NI:NI:FE:VA;0) 298.15 0.75*DGF0B3A#; 6000.0 N !
PARAMETER G(ORD_FCC,FE:FE:FE:FE,NI:VA;0) 298.15 ABF0AAA#; 6000.0 N !
PARAMETER G(ORD_FCC,FE:FE:FE:FE,NI:VA;1) 298.15 ABF1AAA#; 6000.0 N !
PARAMETER G(ORD_FCC,FE:FE:FE,NI:FE:VA;0) 298.15 ABF0AAA#; 6000.0 N !
PARAMETER G(ORD_FCC,FE:FE:FE,NI:FE:VA;1) 298.15 ABF1AAA#; 6000.0 N !
PARAMETER G(ORD_FCC,FE:FE:FE,NI:NI:VA;0) 298.15 ABF0AAB#; 6000.0 N !
PARAMETER G(ORD_FCC,FE:FE:FE,NI:NI:VA;1) 298.15 ABF1AAB#; 6000.0 N !
PARAMETER G(ORD_FCC,FE:FE:NI:FE,NI:VA;0) 298.15 ABF0AAB#; 6000.0 N !
PARAMETER G(ORD_FCC,FE:FE:NI:FE,NI:VA;1) 298.15 ABF1AAB#; 6000.0 N !
PARAMETER G(ORD_FCC,FE:FE,NI:FE:FE:VA;0) 298.15 ABF0AAA#; 6000.0 N !
PARAMETER G(ORD_FCC,FE:FE,NI:FE:FE:VA;1) 298.15 ABF1AAA#; 6000.0 N !
PARAMETER G(ORD_FCC,FE:FE,NI:FE:NI:VA;0) 298.15 ABF0AAB#; 6000.0 N !
PARAMETER G(ORD_FCC,FE:FE,NI:FE:NI:VA;1) 298.15 ABF1AAB#; 6000.0 N !
PARAMETER G(ORD_FCC,FE:FE,NI:NI:FE:VA;0) 298.15 ABF0AAB#; 6000.0 N !
PARAMETER G(ORD_FCC,FE:FE,NI:NI:FE:VA;1) 298.15 ABF1AAB#; 6000.0 N !
PARAMETER G(ORD_FCC,FE:FE,NI:NI:NI:VA;0) 298.15 ABF0ABB#; 6000.0 N !
PARAMETER G(ORD_FCC,FE:FE,NI:NI:NI:VA;1) 298.15 ABF1ABB#; 6000.0 N !
PARAMETER G(ORD_FCC,FE:NI:FE:FE,NI:VA;0) 298.15 ABF0AAB#; 6000.0 N !
PARAMETER G(ORD_FCC,FE:NI:FE:FE,NI:VA;1) 298.15 ABF1AAB#; 6000.0 N !
PARAMETER G(ORD_FCC,FE:NI:FE,NI:FE:VA;0) 298.15 ABF0AAB#; 6000.0 N !
PARAMETER G(ORD_FCC,FE:NI:FE,NI:FE:VA;1) 298.15 ABF1AAB#; 6000.0 N !
PARAMETER G(ORD_FCC,FE:NI:FE,NI:NI:VA;0) 298.15 ABF0ABB#; 6000.0 N !
PARAMETER G(ORD_FCC,FE:NI:FE,NI:NI:VA;1) 298.15 ABF1ABB#; 6000.0 N !
PARAMETER G(ORD_FCC,FE:NI:NI:FE,NI:VA;0) 298.15 ABF0ABB#; 6000.0 N !
PARAMETER G(ORD_FCC,FE:NI:NI:FE,NI:VA;1) 298.15 ABF1ABB#; 6000.0 N !
PARAMETER G(ORD_FCC,FE,NI:FE:FE:FE:VA;0) 298.15 ABF0AAA#; 6000.0 N !
PARAMETER G(ORD_FCC,FE,NI:FE:FE:FE:VA;1) 298.15 ABF1AAA#; 6000.0 N !
PARAMETER G(ORD_FCC,FE,NI:FE:FE:NI:VA;0) 298.15 ABF0AAB#; 6000.0 N !
PARAMETER G(ORD_FCC,FE,NI:FE:FE:NI:VA;1) 298.15 ABF1AAB#; 6000.0 N !
PARAMETER G(ORD_FCC,FE,NI:FE:NI:FE:VA;0) 298.15 ABF0AAB#; 6000.0 N !
PARAMETER G(ORD_FCC,FE,NI:FE:NI:FE:VA;1) 298.15 ABF1AAB#; 6000.0 N !
PARAMETER G(ORD_FCC,FE,NI:FE:NI:NI:VA;0) 298.15 ABF0ABB#; 6000.0 N !
PARAMETER G(ORD_FCC,FE,NI:FE:NI:NI:VA;1) 298.15 ABF1ABB#; 6000.0 N !
PARAMETER G(ORD_FCC,FE,NI:NI:FE:FE:VA;0) 298.15 ABF0AAB#; 6000.0 N !
PARAMETER G(ORD_FCC,FE,NI:NI:FE:FE:VA;1) 298.15 ABF1AAB#; 6000.0 N !
PARAMETER G(ORD_FCC,FE,NI:NI:FE:NI:VA;0) 298.15 ABF0ABB#; 6000.0 N !
PARAMETER G(ORD_FCC,FE,NI:NI:FE:NI:VA;1) 298.15 ABF1ABB#; 6000.0 N !
PARAMETER G(ORD_FCC,FE,NI:NI:NI:FE:VA;0) 298.15 ABF0ABB#; 6000.0 N !
PARAMETER G(ORD_FCC,FE,NI:NI:NI:FE:VA;1) 298.15 ABF1ABB#; 6000.0 N !
PARAMETER G(ORD_FCC,FE,NI:NI:NI:NI:VA;0) 298.15 ABF0BBB#; 6000.0 N !
PARAMETER G(ORD_FCC,FE,NI:NI:NI:NI:VA;1) 298.15 ABF1BBB#; 6000.0 N !
PARAMETER G(ORD_FCC,NI:FE:FE:FE,NI:VA;0) 298.15 ABF0AAB#; 6000.0 N !
PARAMETER G(ORD_FCC,NI:FE:FE:FE,NI:VA;1) 298.15 ABF1AAB#; 6000.0 N !
PARAMETER G(ORD_FCC,NI:FE:FE,NI:FE:VA;0) 298.15 ABF0AAB#; 6000.0 N !
PARAMETER G(ORD_FCC,NI:FE:FE,NI:FE:VA;1) 298.15 ABF1AAB#; 6000.0 N !
PARAMETER G(ORD_FCC,NI:FE:FE,NI:NI:VA;0) 298.15 ABF0ABB#; 6000.0 N !
PARAMETER G(ORD_FCC,NI:FE:FE,NI:NI:VA;1) 298.15 ABF1ABB#; 6000.0 N !
PARAMETER G(ORD_FCC,NI:FE:NI:FE,NI:VA;0) 298.15 ABF0ABB#; 6000.0 N !
PARAMETER G(ORD_FCC,NI:FE:NI:FE,NI:VA;1) 298.15 ABF1ABB#; 6000.0 N !
PARAMETER G(ORD_FCC,NI:FE,NI:FE:FE:VA;0) 298.15 ABF0AAB#; 6000.0 N !
PARAMETER G(ORD_FCC,NI:FE,NI:FE:FE:VA;1) 298.15 ABF1AAB#; 6000.0 N !
PARAMETER G(ORD_FCC,NI:FE,NI:FE:NI:VA;0) 298.15 ABF0ABB#; 6000.0 N !
PARAMETER G(ORD_FCC,NI:FE,NI:FE:NI:VA;1) 298.15 ABF1ABB#; 6000.0 N !
PARAMETER G(ORD_FCC,NI:FE,NI:NI:FE:VA;0) 298.15 ABF0ABB#; 6000.0 N !
PARAMETER G(ORD_FCC,NI:FE,NI:NI:FE:VA;1) 298.15 ABF1ABB#; 6000.0 N !
PARAMETER G(ORD_FCC,NI:FE,NI:NI:NI:VA;0) 298.15 ABF0BBB#; 6000.0 N !
PARAMETER G(ORD_FCC,NI:FE,NI:NI:NI:VA;1) 298.15 ABF1BBB#; 6000.0 N !
PARAMETER G(ORD_FCC,NI:NI:FE:FE,NI:VA;0) 298.15 ABF0ABB#; 6000.0 N !
PARAMETER G(ORD_FCC,NI:NI:FE:FE,NI:VA;1) 298.15 ABF1ABB#; 6000.0 N !
PARAMETER G(ORD_FCC,NI:NI:FE,NI:FE:VA;0) 298.15 ABF0ABB#; 6000.0 N !
PARAMETER G(ORD_FCC,NI:NI:FE,NI:FE:VA;1) 298.15 ABF1ABB#; 6000.0 N !
PARAMETER G(ORD_FCC,NI:NI:FE,NI:NI:VA;0) 298.15 ABF0BBB#; 6000.0 N !
PARAMETER G(ORD_FCC,NI:NI:FE,NI:NI:VA;1) 298.15 ABF1BBB#; 6000.0 N !
PARAMETER G(ORD_FCC,NI:NI:NI:FE,NI:VA;0) 298.15 ABF0BBB#; 6000.0 N !
PARAMETER G(ORD_FCC,NI:NI:NI:FE,NI:VA;1) 298.15 ABF1BBB#; 6000.0 N !
PARAMETER TC(ORD_FCC,FE:FE:FE:NI:VA;0) 298.15 0.75*DTF0A3B#; 6000.0 N !
PARAMETER TC(ORD_FCC,FE:FE:NI:FE:VA;0) 298.15 0.75*DTF0A3B#; 6000.0 N !
PARAMETER TC(ORD_FCC,FE:FE:NI:NI:VA;0) 298.15 DTF0AB#; 6000.0 N !
PARAMETER TC(ORD_FCC,FE:NI:FE:FE:VA;0) 298.15 0.75*DTF0A3B#; 6000.0 N !
PARAMETER TC(ORD_FCC,FE:NI:FE:NI:VA;0) 298.15 DTF0AB#; 6000.0 N !
PARAMETER TC(ORD_FCC,FE:NI:NI:FE:VA;0) 298.15 DTF0AB#; 6000.0 N !
PARAMETER TC(ORD_FCC,FE:NI:NI:NI:VA;0) 298.15 0.75*DTF0B3A#; 6000.0 N !
PARAMETER TC(ORD_FCC,NI:FE:FE:FE:VA;0) 298.15 0.75*DTF0A3B#; 6000.0 N !
PARAMETER TC(ORD_FCC,NI:FE:FE:NI:VA;0) 298.15 DTF0AB#; 6000.0 N !
PARAMETER TC(ORD_FCC,NI:FE:NI:FE:VA;0) 298.15 DTF0AB#; 6000.0 N !
PARAMETER TC(ORD_FCC,NI:FE:NI:NI:VA;0) 298.15 0.75*DTF0B3A#; 6000.0 N !
PARAMETER TC(ORD_FCC,NI:NI:FE:FE:VA;0) 298.15 DTF0AB#; 6000.0 N !
PARAMETER TC(ORD_FCC,NI:NI:FE:NI:VA;0) 298.15 0.75*DTF0B3A#; 6000.0 N !
PARAMETER TC(ORD_FCC,NI:NI:NI:FE:VA;0) 298.15 0.75*DTF0B3A#; 6000.0 N !
PARAMETER TC(ORD_FCC,FE:FE:FE:FE,NI:VA;0) 298.15 TF0LAAA#; 6000.0 N !
PARAMETER TC(ORD_FCC,FE:FE:FE:FE,NI:VA;1) 298.15 TF1LAAA#; 6000.0 N !
PARAMETER TC(ORD_FCC,FE:FE:FE,NI:FE:VA;0) 298.15 TF0LAAA#; 6000.0 N !
PARAMETER TC(ORD_FCC,FE:FE:FE,NI:FE:VA;1) 298.15 TF1LAAA#; 6000.0 N !
PARAMETER TC(ORD_FCC,FE:FE:FE,NI:NI:VA;0) 298.15 TF0LAAB#; 6000.0 N !
PARAMETER TC(ORD_FCC,FE:FE:FE,NI:NI:VA;1) 298.15 TF1LAAB#; 6000.0 N !
PARAMETER TC(ORD_FCC,FE:FE:NI:FE,NI:VA;0) 298.15 TF0LAAB#; 6000.0 N !
PARAMETER TC(ORD_FCC,FE:FE:NI:FE,NI:VA;1) 298.15 TF1LAAB#; 6000.0 N !
PARAMETER TC(ORD_FCC,FE:FE,NI:FE:FE:VA;0) 298.15 TF0LAAA#; 6000.0 N !
PARAMETER TC(ORD_FCC,FE:FE,NI:FE:FE:VA;1) 298.15 TF1LAAA#; 6000.0 N !
PARAMETER TC(ORD_FCC,FE:FE,NI:FE:NI:VA;0) 298.15 TF0LAAB#; 6000.0 N !
PARAMETER TC(ORD_FCC,FE:FE,NI:FE:NI:VA;1) 298.15 TF1LAAB#; 6000.0 N !
PARAMETER TC(ORD_FCC,FE:FE,NI:NI:FE:VA;0) 298.15 TF0LAAB#; 6000.0 N !
PARAMETER TC(ORD_FCC,FE:FE,NI:NI:FE:VA;1) 298.15 TF1LAAB#; 6000.0 N !
PARAMETER TC(ORD_FCC,FE:FE,NI:NI:NI:VA;0) 298.15 TF0LABB#; 6000.0 N !
PARAMETER TC(ORD_FCC,FE:FE,NI:NI:NI:VA;1) 298.15 TF1LABB#; 6000.0 N !
PARAMETER TC(ORD_FCC,FE:NI:FE:FE,NI:VA;0) 298.15 TF0LAAB#; 6000.0 N !
PARAMETER TC(ORD_FCC,FE:NI:FE:FE,NI:VA;1) 298.15 TF1LAAB#; 6000.0 N !
PARAMETER TC(ORD_FCC,FE:NI:FE,NI:FE:VA;0) 298.15 TF0LAAB#; 6000.0 N !
PARAMETER TC(ORD_FCC,FE:NI:FE,NI:FE:VA;1) 298.15 TF1LAAB#; 6000.0 N !
PARAMETER TC(ORD_FCC,FE:NI:FE,NI:NI:VA;0) 298.15 TF0LABB#; 6000.0 N !
PARAMETER TC(ORD_FCC,FE:NI:FE,NI:NI:VA;1) 298.15 TF1LABB#; 6000.0 N !
PARAMETER TC(ORD_FCC,FE:NI:NI:FE,NI:VA;0) 298.15 TF0LABB#; 6000.0 N !
PARAMETER TC(ORD_FCC,FE:NI:NI:FE,NI:VA;1) 298.15 TF1LABB#; 6000.0 N !
PARAMETER TC(ORD_FCC,FE,NI:FE:FE:FE:VA;0) 298.15 TF0LAAA#; 6000.0 N !
PARAMETER TC(ORD_FCC,FE,NI:FE:FE:FE:VA;1) 298.15 TF1LAAA#; 6000.0 N !
PARAMETER TC(ORD_FCC,FE,NI:FE:FE:NI:VA;0) 298.15 TF0LAAB#; 6000.0 N !
PARAMETER TC(ORD_FCC,FE,NI:FE:FE:NI:VA;1) 298.15 TF1LAAB#; 6000.0 N !
PARAMETER TC(ORD_FCC,FE,NI:FE:NI:FE:VA;0) 298.15 TF0LAAB#; 6000.0 N !
PARAMETER TC(ORD_FCC,FE,NI:FE:NI:FE:VA;1) 298.15 TF1LAAB#; 6000.0 N !
PARAMETER TC(ORD_FCC,FE,NI:FE:NI:NI:VA;0) 298.15 TF0LABB#; 6000.0 N !
PARAMETER TC(ORD_FCC,FE,NI:FE:NI:NI:VA;1) 298.15 TF1LABB#; 6000.0 N !
PARAMETER TC(ORD_FCC,FE,NI:NI:FE:FE:VA;0) 298.15 TF0LAAB#; 6000.0 N !
PARAMETER TC(ORD_FCC,FE,NI:NI:FE:FE:VA;1) 298.15 TF1LAAB#; 6000.0 N !
PARAMETER TC(ORD_FCC,FE,NI:NI:FE:NI:VA;0) 298.15 TF0LABB#; 6000.0 N !
PARAMETER TC(ORD_FCC,FE,NI:NI:FE:NI:VA;1) 298.15 TF1LABB#; 6000.0 N !
PARAMETER TC(ORD_FCC,FE,NI:NI:NI:FE:VA;0) 298.15 TF0LABB#; 6000.0 N !
PARAMETER TC(ORD_FCC,FE,NI:NI:NI:FE:VA;1) 298.15 TF1LABB#; 6000.0 N !
PARAMETER TC(ORD_FCC,FE,NI:NI:NI:NI:VA;0) 298.15 TF0LBBB#; 6000.0 N !
PARAMETER TC(ORD_FCC,FE,NI:NI:NI:NI:VA;1) 298.15 TF1LBBB#; 6000.0 N !
PARAMETER TC(ORD_FCC,NI:FE:FE:FE,NI:VA;0) 298.15 TF0LAAB#; 6000.0 N !
PARAMETER TC(ORD_FCC,NI:FE:FE:FE,NI:VA;1) 298.15 TF1LAAB#; 6000.0 N !
PARAMETER TC(ORD_FCC,NI:FE:FE,NI:FE:VA;0) 298.15 TF0LAAB#; 6000.0 N !
PARAMETER TC(ORD_FCC,NI:FE:FE,NI:FE:VA;1) 298.15 TF1LAAB#; 6000.0 N !
PARAMETER TC(ORD_FCC,NI:FE:FE,NI:NI:VA;0) 298.15 TF0LABB#; 6000.0 N !
PARAMETER TC(ORD_FCC,NI:FE:FE,NI:NI:VA;1) 298.15 TF1LABB#; 6000.0 N !
PARAMETER TC(ORD_FCC,NI:FE:NI:FE,NI:VA;0) 298.15 TF0LABB#; 6000.0 N !
PARAMETER TC(ORD_FCC,NI:FE:NI:FE,NI:VA;1) 298.15 TF1LABB#; 6000.0 N !
PARAMETER TC(ORD_FCC,NI:FE,NI:FE:FE:VA;0) 298.15 TF0LAAB#; 6000.0 N !
PARAMETER TC(ORD_FCC,NI:FE,NI:FE:FE:VA;1) 298.15 TF1LAAB#; 6000.0 N !
PARAMETER TC(ORD_FCC,NI:FE,NI:FE:NI:VA;0) 298.15 TF0LABB#; 6000.0 N !
PARAMETER TC(ORD_FCC,NI:FE,NI:FE:NI:VA;1) 298.15 TF1LABB#; 6000.0 N !
PARAMETER TC(ORD_FCC,NI:FE,NI:NI:FE:VA;0) 298.15 TF0LABB#; 6000.0 N !
PARAMETER TC(ORD_FCC,NI:FE,NI:NI:FE:VA;1) 298.15 TF1LABB#; 6000.0 N !
PARAMETER TC(ORD_FCC,NI:FE,NI:NI:NI:VA;0) 298.15 TF0LBBB#; 6000.0 N !
PARAMETER TC(ORD_FCC,NI:FE,NI:NI:NI:VA;1) 298.15 TF1LBBB#; 6000.0 N !
PARAMETER TC(ORD_FCC,NI:NI:FE:FE,NI:VA;0) 298.15 TF0LABB#; 6000.0 N !
PARAMETER TC(ORD_FCC,NI:NI:FE:FE,NI:VA;1) 298.15 TF1LABB#; 6000.0 N !
PARAMETER TC(ORD_FCC,NI:NI:FE,NI:FE:VA;0) 298.15 TF0LABB#; 6000.0 N !
PARAMETER TC(ORD_FCC,NI:NI:FE,NI:FE:VA;1) 298.15 TF1LABB#; 6000.0 N !
PARAMETER TC(ORD_FCC,NI:NI:FE,NI:NI:VA;0) 298.15 TF0LBBB#; 6000.0 N !
PARAMETER TC(ORD_FCC,NI:NI:FE,NI:NI:VA;1) 298.15 TF1LBBB#; 6000.0 N !
PARAMETER TC(ORD_FCC,NI:NI:NI:FE,NI:VA;0) 298.15 TF0LBBB#; 6000.0 N !
PARAMETER TC(ORD_FCC,NI:NI:NI:FE,NI:VA;1) 298.15 TF1LBBB#; 6000.0 N !
