$$$$$$$$$$$$$$$$$$$$$$$$$$$$$$$$$$$$$$$$$$$$$$$$$$$$$$$$$$$$$$$$$$$$$$$$$$$$$$
$ Date: 2023-04-13 08:48
$ Components: C, FE, VA
$ Phases: BCC_A2, CEMENTITE, DIAMOND_A4, FCC_A1, GRAPHITE, LIQUID
$ Generated by tobias (pycalphad 0.10.2)
$$$$$$$$$$$$$$$$$$$$$$$$$$$$$$$$$$$$$$$$$$$$$$$$$$$$$$$$$$$$$$$$$$$$$$$$$$$$$$

ELEMENT C GRAPHITE 12.011 1054.0 5.7423 !
ELEMENT FE BCC_A2 55.847 4489.0 27.2797 !
ELEMENT VA VACUUM 0.0 0.0 0.0 !


FUNCTION GFECEM 273.0 -10195.860754-0.0007 * T**(2.0)-118.47637 * T * LOG(T)
   + 590527.0 * T**(-1.0) + 690.949887637 * T; 6000.0 N !
FUNCTION GFEFCC 273.0 -1462.4 + GHSERFE + 0.00064 * T**(2.0)-1.15 * T *
   LOG(T) + 8.282 * T; 1811.0 Y -27098.266 + 2.78854E+31 * T**(-9.0)-46.0 * T
   * LOG(T) + 300.25256 * T; 6000.0 N !
FUNCTION GHSERCC 273.0 -988.25091-0.01706952 * T**(2.0) + 1.76583 * T *
   LOG(T)-7.39898691 * T; 350.0 Y -17368.441 + 12000000000.0 *
   T**(-3.0)-264300000.0 * T**(-2.0)-0.0004723 * T**(2.0)-24.3 * T * LOG(T) +
   2562600.0 * T**(-1.0) + 170.73 * T; 6000.0 N !
FUNCTION GHSERFE 273.0 1225.7-0.00439752 * T**(2.0)-23.5143 * T * LOG(T) +
   77358.5 * T**(-1.0)-5.89269E-08 * T**(3.0) + 124.134 * T; 1811.0 Y
   -25383.581 + 2.2960305E+31 * T**(-9.0)-46.0 * T * LOG(T) + 299.31255 * T;
   6000.0 N !
FUNCTION VV000 1 -300.996584; 10000 N !
FUNCTION VV006 1 -34086.6362; 10000 N !
FUNCTION VV010 1 142485.328; 10000 N !
FUNCTION VV011 1 169953.777; 10000 N !
FUNCTION VV012 1 169.774924; 10000 N !
FUNCTION VV013 1 83004.7312; 10000 N !
FUNCTION VV014 1 -13.3052301; 10000 N !

TYPE_DEFINITION % SEQ * !
DEFINE_SYSTEM_DEFAULT ELEMENT 2 !
DEFAULT_COMMAND DEFINE_SYSTEM_ELEMENT VA !

TYPE_DEFINITION ^ GES AMEND_PHASE_DESCRIPTION BCC_A2 MAGNETIC -1.0 0.4 !
TYPE_DEFINITION & GES AMEND_PHASE_DESCRIPTION CEMENTITE MAGNETIC -3.0 0.28 !
TYPE_DEFINITION * GES AMEND_PHASE_DESCRIPTION FCC_A1 MAGNETIC -3.0 0.28 !

PHASE BCC_A2 %^  2 1.0 3.0 !
CONSTITUENT BCC_A2 :FE:C, VA: !

PHASE CEMENTITE %&  2 3.0 1.0 !
CONSTITUENT CEMENTITE :FE:C: !

PHASE FCC_A1 %*  2 1.0 1.0 !
CONSTITUENT FCC_A1 :FE:C, VA: !

PHASE GRAPHITE %  1 1.0 !
CONSTITUENT GRAPHITE :C: !


$$$$$$$$$$$$$$$$$$$$$$$$$$$$$$$$$$$$$$$$$$$$$$$$$$$$$$$$$$$$$$$$$$$$$$$$$$$$$$
$                                     C                                      $
$$$$$$$$$$$$$$$$$$$$$$$$$$$$$$$$$$$$$$$$$$$$$$$$$$$$$$$$$$$$$$$$$$$$$$$$$$$$$$

PARAMETER G(GRAPHITE,C;0) 273.0 GHSERCC; 6000.0 N !

$$$$$$$$$$$$$$$$$$$$$$$$$$$$$$$$$$$$$$$$$$$$$$$$$$$$$$$$$$$$$$$$$$$$$$$$$$$$$$
$                                     FE                                     $
$$$$$$$$$$$$$$$$$$$$$$$$$$$$$$$$$$$$$$$$$$$$$$$$$$$$$$$$$$$$$$$$$$$$$$$$$$$$$$

PARAMETER BMAGN(BCC_A2,FE:VA;0) 273.0 2.22; 6000.0 N !
PARAMETER G(BCC_A2,FE:VA;0) 273.0 GHSERFE; 6000.0 N !
PARAMETER TC(BCC_A2,FE:VA;0) 273.0 1043.0; 6000.0 N !
PARAMETER BMAGN(FCC_A1,FE:VA;0) 273.0 -2.1; 6000.0 N !
PARAMETER G(FCC_A1,FE:VA;0) 273.0 -1462.4 + GHSERFE + 0.00064 * T**(2.0)-1.15
   * T * LOG(T) + 8.282 * T; 1811.0 Y -1713.815 + GHSERFE + 4.925095E+30 *
   T**(-9.0) + 0.94001 * T; 6000.0 N !
PARAMETER TC(FCC_A1,FE:VA;0) 273.0 -201.0; 6000.0 N !


$$$$$$$$$$$$$$$$$$$$$$$$$$$$$$$$$$$$$$$$$$$$$$$$$$$$$$$$$$$$$$$$$$$$$$$$$$$$$$
$                                    C-FE                                    $
$$$$$$$$$$$$$$$$$$$$$$$$$$$$$$$$$$$$$$$$$$$$$$$$$$$$$$$$$$$$$$$$$$$$$$$$$$$$$$

PARAMETER BMAGN(BCC_A2,FE:C;0) 273.0 2.22; 6000.0 N !
PARAMETER G(BCC_A2,FE:C;0) 273.0 3.0 * GHSERCC + GHSERFE + T * VV012 + VV011;
   6000.0 N !
PARAMETER L(BCC_A2,FE:C,VA;0) 273.0 T * VV000 + VV010; 6000.0 N !
PARAMETER TC(BCC_A2,FE:C;0) 273.0 1043.0; 6000.0 N !
PARAMETER BMAGN(CEMENTITE,FE:C;0) 273.0 1.008; 6000.0 N !
PARAMETER G(CEMENTITE,FE:C;0) 273.0 GFECEM; 6000.0 N !
PARAMETER TC(CEMENTITE,FE:C;0) 273.0 485.0; 6000.0 N !
PARAMETER BMAGN(FCC_A1,FE:C;0) 273.0 -2.1; 6000.0 N !
PARAMETER G(FCC_A1,FE:C;0) 273.0 GHSERCC + GFEFCC + T * VV014 + VV013; 6000.0
   N !
PARAMETER L(FCC_A1,FE:C,VA;0) 273.0 VV006; 6000.0 N !
PARAMETER TC(FCC_A1,FE:C;0) 273.0 -201.0; 6000.0 N !
