$ Database file written 2016- 5-19
$ From database: TTNI5
 ELEMENT /-   ELECTRON_GAS              0.0000E+00  0.0000E+00  0.0000E+00!
 ELEMENT VA   VACUUM                    0.0000E+00  0.0000E+00  0.0000E+00!
 ELEMENT AL   FCC_A1                    2.6982E+01  4.5400E+03  2.8300E+01!
 ELEMENT CR   BCC_A2                    5.1996E+01  4.0500E+03  2.3543E+01!
 ELEMENT NI   FCC_A1                    5.8690E+01  4.7870E+03  2.9796E+01!
 FUNCTION GHSERAL   298.14 -7976.15+137.093038*T-24.3671976*T*LN(T)
     -.001884662*T**2-8.77664E-07*T**3+74092*T**(-1); 700 Y
      -11276.24+223.048446*T-38.5844296*T*LN(T)+.018531982*T**2
     -5.764227E-06*T**3+74092*T**(-1); 933.47 Y
      -11278.378+188.684153*T-31.748192*T*LN(T)-1.231E+28*T**(-9); 2900 N !
 FUNCTION ZERO      298.15 +0.0; 6000 N !
 FUNCTION GFCCCR    298.15 +7284+.163*T+GHSERCR#; 6000 N !
 FUNCTION GHSERNI   298.14 -5179.159+117.854*T-22.096*T*LN(T)-.0048407*T**2;
     1728 Y
      -27840.655+279.135*T-43.1*T*LN(T)+1.12754E+31*T**(-9); 3000 N !
 FUNCTION GHSERCR   298.14 -8856.94+157.48*T-26.908*T*LN(T)+.00189435*T**2
     -1.47721E-06*T**3+139250*T**(-1); 2180 Y
      -34869.344+344.18*T-50*T*LN(T)-2.88526E+32*T**(-9); 6000 N !
 FUNCTION UN_ASS 298.15 +0; 300 N !
 TYPE_DEFINITION % SEQ *!
 DEFINE_SYSTEM_DEFAULT ELEMENT 2 !
 DEFAULT_COMMAND DEF_SYS_ELEMENT VA /- !
 TYPE_DEFINITION & GES A_P_D FCC_A1 MAGNETIC  -3.0    2.80000E-01 !
 PHASE FCC_A1  %&  2 1 1!
    CONSTITUENT FCC_A1  :AL,CR,NI% :VA: !
   PARAMETER G(FCC_A1,AL:VA;0)            298.15 +GHSERAL#; 6000 N REF0 !
   PARAMETER TC(FCC_A1,AL:VA;0)           298.15 +ZERO#; 6000 N REF0 !
   PARAMETER BMAGN(FCC_A1,AL:VA;0)        298.15 +ZERO#; 6000 N REF0 !
   PARAMETER G(FCC_A1,CR:VA;0)            298.15 +GFCCCR#; 6000 N REF0 !
   PARAMETER TC(FCC_A1,CR:VA;0)           298.15 -1109; 6000 N REF0 !
   PARAMETER BMAGN(FCC_A1,CR:VA;0)        298.15 -2.46; 6000 N REF0 !
   PARAMETER G(FCC_A1,NI:VA;0)            298.15 +GHSERNI#; 6000 N REF0 !
   PARAMETER TC(FCC_A1,NI:VA;0)           298.15 +633; 6000 N REF0 !
   PARAMETER BMAGN(FCC_A1,NI:VA;0)        298.15 +.52; 6000 N REF0 !
   PARAMETER G(FCC_A1,AL,CR:VA;0)         298.15 -45900+6*T; 6000 N REF0 !
   PARAMETER G(FCC_A1,AL,CR,NI:VA;0)      298.15 +30500-5*T; 6000 N REF0 !
   PARAMETER G(FCC_A1,AL,NI:VA;0)         298.15 -173950+19.35*T; 6000 N
  REF0 !
   PARAMETER G(FCC_A1,AL,NI:VA;1)         298.15 +28500; 6000 N REF0 !
   PARAMETER G(FCC_A1,AL,NI:VA;2)         298.15 +47000; 6000 N REF0 !
   PARAMETER G(FCC_A1,CR,NI:VA;0)         298.15 +8030-12.8801*T; 6000 N
  REF0 !
   PARAMETER G(FCC_A1,CR,NI:VA;1)         298.15 +33080-16.0362*T; 6000 N
  REF0 !
   PARAMETER TC(FCC_A1,CR,NI:VA;0)        298.15 -3605; 6000 N REF0 !
   PARAMETER BMAGN(FCC_A1,CR,NI:VA;0)     298.15 -1.91; 6000 N REF0 !
 TYPE_DEFINITION ' GES A_P_D GAMMA_PRIME MAGNETIC  -3.0    2.80000E-01 !
 PHASE GAMMA_PRIME  %'  2 .75   .25 !
    CONSTITUENT GAMMA_PRIME  :AL,CR,NI% : AL%,CR,NI :  !
   PARAMETER G(GAMMA_PRIME,AL:AL;0)       298.15 +GHSERAL#; 6000 N REF0 !
   PARAMETER G(GAMMA_PRIME,CR:AL;0)       298.15 -8606+1.125*T+.75*GFCCCR#
  +.25*GHSERAL#; 6000 N REF0 !
   PARAMETER G(GAMMA_PRIME,NI:AL;0)       298.15 -39860+3.175*T+.75*GHSERNI#
  +.25*GHSERAL#; 6000 N REF0 !
   PARAMETER G(GAMMA_PRIME,AL:CR;0)       298.15 -8606+1.125*T+.75*GHSERAL#
  +.25*GFCCCR#; 6000 N REF0 !
   PARAMETER G(GAMMA_PRIME,CR:CR;0)       298.15 +GFCCCR#; 6000 N REF0 !
   PARAMETER G(GAMMA_PRIME,NI:CR;0)       298.15 -1915-.91*T+.75*GHSERNI#
  +.25*GFCCCR#; 6000 N REF0 !
   PARAMETER G(GAMMA_PRIME,AL:NI;0)       298.15 -35000+5*T+.75*GHSERAL#
  +.25*GHSERNI#; 6000 N REF0 !
   PARAMETER G(GAMMA_PRIME,CR:NI;0)       298.15 +10000-3.92*T+.75*GFCCCR#
  +.25*GHSERNI#; 6000 N REF0 !
   PARAMETER G(GAMMA_PRIME,NI:NI;0)       298.15 +GHSERNI#; 6000 N REF0 !
   PARAMETER TC(GAMMA_PRIME,NI:NI;0)      298.15 +633; 6000 N REF0 !
   PARAMETER BMAGN(GAMMA_PRIME,NI:NI;0)   298.15 +.52; 6000 N REF0 !
   PARAMETER G(GAMMA_PRIME,AL,NI:AL;0)    298.15 -59500+20*T; 6000 N REF0 !
   PARAMETER G(GAMMA_PRIME,AL,NI:AL;1)    298.15 +53350; 6000 N REF0 !
   PARAMETER G(GAMMA_PRIME,AL:AL,NI;0)    298.15 +10000; 6000 N REF0 !
   PARAMETER G(GAMMA_PRIME,AL:AL,CR;0)    298.15 -2869+.375*T; 6000 N REF0 !
   PARAMETER G(GAMMA_PRIME,CR:AL,NI;0)    298.15 +10000; 6000 N REF0 !
   PARAMETER G(GAMMA_PRIME,CR:AL,CR;0)    298.15 -2869+.375*T; 6000 N REF0 !
   PARAMETER G(GAMMA_PRIME,NI:AL,NI;0)    298.15 +9100-1.5*T; 6000 N REF0 !
   PARAMETER G(GAMMA_PRIME,NI:AL,NI;1)    298.15 -5400; 6000 N REF0 !
   PARAMETER G(GAMMA_PRIME,NI:AL,CR;0)    298.15 -6250+T; 6000 N REF0 !
   PARAMETER G(GAMMA_PRIME,AL,NI:CR;0)    298.15 -60000+20*T; 6000 N REF0 !
   PARAMETER G(GAMMA_PRIME,AL,NI:NI;0)    298.15 -50000; 6000 N REF0 !
   PARAMETER G(GAMMA_PRIME,AL,CR:*;0)     298.15 -25819+3.375*T; 6000 N REF0 !
   PARAMETER G(GAMMA_PRIME,*:CR,NI;0)     298.15 +3000; 6000 N REF0 !
   PARAMETER G(GAMMA_PRIME,CR,NI:*;0)     298.15 -1500; 6000 N REF0 !
 LIST_OF_REFERENCES
 NUMBER  SOURCE
  !