$ Based on Matcalc steel database 2.060; used under ODBL
$ https://opendatacommons.org/licenses/odbl/1-0/
$ Only Fe-Co-Cr-Nb-Ti parameters retained (for performance in test)
$ Generated by brandon (pycalphad 0.8.4+142.g7d607139)
$$$$$$$$$$$$$$$$$$$$$$$$$$$$$$$$$$$$$$$$$$$$$$$$$$$$$$$$$$$$$$$$$$$$$$$$$$$$$$

ELEMENT AL FCC_A1 26.98154 4540.0 28.3 !
ELEMENT B BETA_RHOMBO_B 10.811 1222.0 5.9 !
ELEMENT C HEX_A9 12.011 1054.0 5.7423 !
ELEMENT CO HCP_A3 58.933 4765.567 30.03 !
ELEMENT CR BCC_A2 51.996 4050.0 23.5429 !
ELEMENT CU FCC_A1 63.546 5004.0 33.15 !
ELEMENT FE BCC_A2 55.847 4489.0 27.2797 !
ELEMENT H 1/2_MOLE_H2(GAS) 1.0079 4234.0 65.285 !
ELEMENT HF HCP_A3 178.49 5845.0 43.56 !
ELEMENT LA DOUBLE_HCP(ABAC) 138.91 6665.1 56.902 !
ELEMENT MN BCC_A12 54.938 4995.696 32.2206 !
ELEMENT MO BCC_A2 95.94 4589.0 28.56 !
ELEMENT N 1/2_MOLE_N2(G) 14.007 4335.0 95.751 !
ELEMENT NB BCC_A2 92.9064 5220.0 36.27 !
ELEMENT NI FCC_A1 58.69 4787.0 29.7955 !
ELEMENT O 1/2_MOLE_O2(GAS) 15.999 4341.0 102.52 !
ELEMENT P WHITE_P 30.974 5360.0 41.09 !
ELEMENT PD FCC_A1 106.42 5468.5 37.8234 !
ELEMENT S FC_ORTHORH 32.066 4412.0 32.054 !
ELEMENT SI DIA_A4 28.0855 3217.0 18.81 !
ELEMENT TI HCP_A3 47.88 4824.0 30.72 !
ELEMENT V BCC_A2 50.9415 4507.0 30.89 !
ELEMENT VA VACUUM 0.0 0.0 0.0 !
ELEMENT W BCC_A2 183.85 4970.0 32.6176 !
ELEMENT Y HCP_A3 88.9059 5966.384 44.4341 !


FUNCTION AL2NI2 273.0 4*U1ALNI#; 6000.0 N !
FUNCTION AL3NI 273.0 3*U1ALNI#; 6000.0 N !
FUNCTION ALNI3 273.0 3*U1ALNI#; 6000.0 N !
FUNCTION B2ALNI 273.0 26.40575*T - 152397.88; 6000.0 N !
FUNCTION B2NIVA 273.0 162397.3 - 27.40575*T; 6000.0 N !
FUNCTION DGLAV 273.0 5000; 6000.0 N !
FUNCTION ETCFESI 273.0 63; 6000.0 N !
FUNCTION FESIW1 273.0 10476.27; 6000.0 N !
FUNCTION GAL2O3 273.0 1.4205433E-5*T**3 - 0.06747*T**2 - 67.4804*T*LN(T) +
   448.021092*T - 1707351.3 + 938780*T**(-1); 600.0 Y 2.78532E-7*T**3 -
   0.0072257*T**2 - 116.258*T*LN(T) + 754.856573*T - 1724886.06 +
   2120700*T**(-1); 1500.0 Y -6.29402E-7*T**3 + 0.00709105*T**2 -
   156.058*T*LN(T) + 1053.4548*T - 1772163.19 + 12366650*T**(-1); 6000.0 N !
FUNCTION GALBCC 273.0 -4.813*T + GHSERAL# + 10083; 6000.0 N !
FUNCTION GALHCP 273.0 -1.8*T + GHSERAL# + 5481; 6000.0 N !
FUNCTION GCOBCC 273.0 -0.7138*T + GHSERCO# + 2938; 6000.0 N !
FUNCTION GCOFCC 273.0 -0.61525*T + GHSERCO# + 427.591; 6000.0 N !
FUNCTION GCOM23C6 273.0 116*T + 6*GHSERCC# + 23*GHSERCO# + 145000; 6000.0 N !
FUNCTION GCR2O3 273.0 -0.00497*T**2 - 119.8*T*LN(T) + 728.56*T - 1164542 +
   1050000*T**(-1); 6000.0 N !
FUNCTION GCR3O4 273.0 -93.76*T + 1.5*GCR2O3# - 0.5*GHSEROO# + 280045; 6000.0
   N !
FUNCTION GCRFCC 273.0 0.163*T + GHSERCR# + 7284; 6000.0 N !
FUNCTION GCRM23C6 273.0 -0.126431*T**2 - 620.965*T*LN(T) + 3622.24*T -
   521983; 6000.0 N !
FUNCTION GCRM3C2 273.0 -0.0301188*T**2 - 89.6694*T*LN(T) + 530.66989*T -
   100823.8; 6000.0 N !
FUNCTION GCRM7C3 273.0 -0.0578207*T**2 - 190.177*T*LN(T) + 1103.128*T -
   201690; 6000.0 N !
FUNCTION GCUBCC 273.0 -1.255*T + GHSERCU# + 4017; 6000.0 N !
FUNCTION GDHCFE 273.0 0.5*GFEFCC# + 0.5*GFEHCP#; 6000.0 N !
FUNCTION GDHCNI 273.0 0.5*GHSERNI# + 0.5*GNIHCP#; 6000.0 N !
FUNCTION GDHCNIA 273.0 0.5*GHSERNIA# + 0.5*GNIHCPA#; 6000.0 N !
FUNCTION GDHCTI 273.0 0.5*GHSERTI# + 0.5*GTIFCC#; 6000.0 N !
FUNCTION GDHCTIA 273.0 0.5*GHSERTIA# + 0.5*GTIFCCA#; 6000.0 N !
FUNCTION GDIG 273.0 8.1715*T*LN(T) - 97.82124*T + 2*GHSERCU# + GHSERSS# -
   73851.5; 3000.0 N !
FUNCTION GFE2O3 273.0 -137.0089*T*LN(T) + 827.946*T - 858683 +
   1453810*T**(-1); 6000.0 N !
FUNCTION GFECEM 273.0 -0.0007*T**2 - 118.47637*T*LN(T) + 690.949887637*T -
   10195.860754 + 590527*T**(-1); 6000.0 N !
FUNCTION GFEFCC 273.0 0.00064*T**2 - 1.15*T*LN(T) + 8.282*T + GHSERFE# -
   1462.4; 1811.0 Y -46*T*LN(T) + 300.25256*T - 27098.266 +
   2.78854E+31*T**(-9); 6000.0 N !
FUNCTION GFEHCP 273.0 -5.8927E-8*T**3 - 0.00375752*T**2 - 24.6643*T*LN(T) +
   136.725*T - 2480.08 + 77358.5*T**(-1); 1811.0 Y -46*T*LN(T) + 304.56206*T
   - 29340.78 + 2.78854E+31*T**(-9); 6000.0 N !
FUNCTION GFEM23C6 273.0 -40*T + 7.666667*GFECEM# - 1.666667*GHSERCC# + 66920;
   6000.0 N !
FUNCTION GFEO 273.0 -0.0057403*T**2 - 46.12826*T*LN(T) + 252.848*T - 279318;
   6000.0 N !
FUNCTION GHEXTNB 273.0 -3.50119E-7*T**3 + 0.000203475*T**2 - 26.4711*T*LN(T)
   + 142.048*T - 8519.35 + 93398.8*T**(-1); 6000.0 N !
FUNCTION GHF1O2_S 273.0 -0.00297849*T**2 - 74.15647*T*LN(T) + 446.1053*T -
   1144500 + 630000*T**(-1); 6000.0 N !
FUNCTION GHFBCC 273.0 -1.446E-10*T**4 + 8.71923E-7*T**3 - 0.004206605*T**2 -
   22.8995*T*LN(T) + 103.836026*T + 5370.703 - 22590*T**(-1); 2506.0 Y
   1.3427829E-5*T**3 - 0.286857065*T**2 + 1087.6141247*T*LN(T) - 8624.20573*T
   + 1912456.771 - 610085091*T**(-1); 6000.0 N !
FUNCTION GHFC 273.0 -0.00299726*T**2 - 45.61482*T*LN(T) + 272.916*T - 226447
   + 501495*T**(-1) - 958263000.0*T**(-3); 4000.0 N !
FUNCTION GHFFCC 273.0 -4.77E-10*T**3 - 0.004146*T**2 - 22.7075*T*LN(T) +
   108.544*T + 3012.703 - 22590*T**(-1); 2506.0 Y -7.575759E-6*T**3 +
   0.1735215*T**2 - 787.5363829*T*LN(T) + 6191.409991*T - 1436776.329 +
   501742495*T**(-1); 3000.0 N !
FUNCTION GHSERAL 273.0 -8.77664E-7*T**3 - 0.001884662*T**2 -
   24.3671976*T*LN(T) + 137.093038*T - 7976.15 + 74092*T**(-1); 700.0 Y
   -5.764227E-6*T**3 + 0.018531982*T**2 - 38.5844296*T*LN(T) + 223.048446*T -
   11276.24 + 74092*T**(-1); 933.47 Y -31.748192*T*LN(T) + 188.684153*T -
   11278.378 - 1.231E+28*T**(-9); 6000.0 N !
FUNCTION GHSERBB 273.0 6.18878E-7*T**3 - 0.006864515*T**2 - 15.6641*T*LN(T) +
   107.111864*T - 7735.284 + 370843*T**(-1); 1100.0 Y -2.556E-8*T**3 -
   0.00079809*T**2 - 26.6047*T*LN(T) + 184.801744*T - 16649.474 +
   1748270*T**(-1); 2348.0 Y 1.34719E-7*T**3 - 0.00159488*T**2 -
   31.5957527*T*LN(T) + 231.336244*T - 36667.582 + 11205883*T**(-1); 3000.0 Y
   -31.4*T*LN(T) + 222.396264*T - 21530.653; 6000.0 N !
FUNCTION GHSERCC 273.0 -0.01706952*T**2 + 1.76583*T*LN(T) - 7.39898691*T -
   988.25091; 350.0 Y -0.0004723*T**2 - 24.3*T*LN(T) + 170.73*T - 17368.441 +
   2562600*T**(-1) - 264300000.0*T**(-2) + 12000000000.0*T**(-3); 6000.0 N !
FUNCTION GHSERCO 273.0 -1.7348E-7*T**3 - 0.0026547387*T**2 - 25.0861*T*LN(T)
   + 133.36601*T + 310.241 + 72526.9*T**(-1); 1768.0 Y -40.5*T*LN(T) +
   253.28374*T - 17197.666 + 9.3488E+30*T**(-9); 6000.0 N !
FUNCTION GHSERCR 273.0 -1.47721E-6*T**3 + 0.00189435*T**2 - 26.908*T*LN(T) +
   157.48*T - 8856.94 + 139250*T**(-1); 2180.0 Y -50*T*LN(T) + 344.18*T -
   34869.344 - 2.88526E+32*T**(-9); 6000.0 N !
FUNCTION GHSERCU 273.0 1.29223E-7*T**3 - 0.00265684*T**2 - 24.112392*T*LN(T)
   + 130.485235*T - 7770.458 + 52478*T**(-1); 1357.77 Y -31.38*T*LN(T) +
   183.803828*T - 13542.026 + 3.642E+29*T**(-9); 6000.0 N !
FUNCTION GHSERFE 273.0 -5.89269E-8*T**3 - 0.00439752*T**2 - 23.5143*T*LN(T) +
   124.134*T + 1225.7 + 77358.5*T**(-1); 1811.0 Y -46*T*LN(T) + 299.31255*T -
   25383.581 + 2.2960305E+31*T**(-9); 6000.0 N !
FUNCTION GHSERHF 273.0 -4.77E-10*T**3 - 0.004146145*T**2 - 22.7075*T*LN(T) +
   110.744026*T - 6987.297 - 22590*T**(-1); 2506.0 Y -7.575759E-6*T**3 +
   0.1735215*T**2 - 787.5363829*T*LN(T) + 6193.609991*T - 1446776.329 +
   501742495*T**(-1); 6000.0 N !
FUNCTION GHSERHH 273.0 -7.46390667E-7*T**3 + 0.0027589925*T**2 -
   31.35707*T*LN(T) + 78.5273873*T - 9522.97393 + 56582.3*T**(-1); 1000.0 Y
   3.14618667E-7*T**3 - 0.00584168*T**2 - 17.84857*T*LN(T) - 15.6128262*T +
   180.10884 - 1280036*T**(-1); 2100.0 Y 1.14281783E-8*T**3 -
   0.0010728235*T**2 - 32.05082*T*LN(T) + 92.3120249*T - 18840.1661 +
   3561002.5*T**(-1); 6000.0 N !
FUNCTION GHSERLA 273.0 -0.001295165*T**2 - 26.34*T*LN(T) + 120.284604*T -
   7968.403; 550.0 Y 6.8932E-7*T**3 - 0.008371705*T**2 - 17.1659411*T*LN(T) +
   59.06113*T - 3381.413 - 399448*T**(-1); 2000.0 Y -34.3088*T*LN(T) +
   181.390071*T - 15608.882; 6000.0 N !
FUNCTION GHSERMN 273.0 -0.00734768*T**2 - 23.4582*T*LN(T) + 130.059*T -
   8115.28 + 69827.1*T**(-1); 1519.0 Y -48.0*T*LN(T) + 312.2648*T - 28733.41
   + 1.656847E+30*T**(-9); 6000.0 N !
FUNCTION GHSERMO 273.0 -1.309265E-10*T**4 + 5.662834E-7*T**3 -
   0.003443396*T**2 - 23.56414*T*LN(T) + 131.9197*T - 7746.302 +
   65812.39*T**(-1); 2896.0 Y -42.63829*T*LN(T) + 283.559746*T - 30556.41 -
   4.849315E+33*T**(-9); 5000.0 N !
FUNCTION GHSERNB 273.0 -3.5011E-7*T**3 + 0.000203475*T**2 - 26.4711*T*LN(T) +
   142.045475*T - 8519.353 + 93399*T**(-1); 2750.0 Y -41.77*T*LN(T) +
   271.720843*T - 37669.3 + 1.52824E+32*T**(-9); 6000.0 N !
FUNCTION GHSERNI 273.0 -0.0048407*T**2 - 22.096*T*LN(T) + 117.854*T -
   5179.159; 1728.0 Y -43.1*T*LN(T) + 279.135*T - 27840.655 +
   1.12754E+31*T**(-9); 6000.0 N !
FUNCTION GHSERNIA 273.0 -0.0048407*T**2 - 22.096*T*LN(T) + 117.854*T -
   5179.159; 6000.0 N !
FUNCTION GHSERNN 273.0 2.680735E-9*T**3 - 0.00176686*T**2 - 12.7819*T*LN(T) -
   9.45425*T - 3750.675 - 32374*T**(-1); 950.0 Y 3.0097E-8*T**3 -
   0.00065107*T**2 - 16.3699*T*LN(T) + 17.2003*T - 7358.85 + 563070*T**(-1);
   3350.0 Y -8.3331E-9*T**3 + 0.000239754*T**2 - 20.4695*T*LN(T) + 50.26*T -
   16392.8 + 4596375*T**(-1); 6000.0 N !
FUNCTION GHSEROO 273.0 6.6184604E-7*T**3 - 0.005098873*T**2 -
   11.1355068*T*LN(T) - 25.5028601*T - 3480.87226 - 38364.8742*T**(-1);
   1000.0 Y 6.78055555E-9*T**3 - 0.00059579637*T**2 - 16.8138015*T*LN(T) +
   12.6600017*T - 6568.76015 + 262904.778*T**(-1); 3300.0 Y 1.0721E-8*T**3 -
   0.000425243*T**2 - 18.9536*T*LN(T) + 31.259625*T - 13986.728 +
   4383200*T**(-1); 6000.0 N !
FUNCTION GHSERPD 273.0 -1.919875E-6*T**3 + 0.007120975*T**2 - 32.211*T*LN(T)
   + 176.076315*T - 10204.027 + 168687*T**(-1); 900.0 Y 1.91115E-7*T**3 -
   0.00717522*T**2 - 13.5708*T*LN(T) + 49.659892*T + 917.062 -
   1112465*T**(-1); 1828.0 Y -6.2811E-8*T**3 + 0.002091396*T**2 -
   54.2067086*T*LN(T) + 370.102147*T - 67161.018 + 18683526*T**(-1); 6000.0 N
   !
FUNCTION GHSERPP 273.0 -0.000104022667*T**3 + 0.290708*T**2 - 178.426*T*LN(T)
   + 1026.69389*T - 43821.799 + 1632695*T**(-1); 317.3 Y -2.2829E-7*T**3 +
   0.001715669*T**2 - 28.7335301*T*LN(T) + 152.341487*T - 9587.448 +
   172966*T**(-1); 1000.0 Y -26.326*T*LN(T) + 135.876831*T - 8093.075; 3000.0
   N !
FUNCTION GHSERSI 273.0 -3.552E-9*T**3 - 0.001912904*T**2 - 22.8317533*T*LN(T)
   + 137.236859*T - 8162.609 + 176667*T**(-1); 1687.0 Y -27.196*T*LN(T) +
   167.281367*T - 9457.642 - 4.2037E+30*T**(-9); 3600.0 N !
FUNCTION GHSERSS 273.0 7.754333E-6*T**3 - 0.026529*T**2 - 11.007*T*LN(T) +
   55.417762*T - 5228.956; 368.3 Y 1.402558E-6*T**3 - 0.010895125*T**2 -
   17.941839*T*LN(T) + 94.692922*T - 6513.769 + 39910*T**(-1); 3000.0 N !
FUNCTION GHSERTI 273.0 1.06716E-7*T**3 - 0.004777975*T**2 - 23.9933*T*LN(T) +
   133.615208*T - 8059.921 + 72636*T**(-1); 900.0 Y -9.0876E-8*T**3 -
   0.0042033*T**2 - 23.9887*T*LN(T) + 132.988068*T - 7811.815 +
   42680*T**(-1); 1155.0 Y 2.02715E-7*T**3 - 0.0081465*T**2 - 14.9466*T*LN(T)
   + 66.976538*T + 908.837 - 1477660*T**(-1); 1941.0 Y -3.04747E-7*T**3 +
   0.008204849*T**2 - 87.2182461*T*LN(T) + 638.806871*T - 124526.786 +
   36699805*T**(-1); 4000.0 N !
FUNCTION GHSERTIA 273.0 1.06716E-7*T**3 - 0.004777975*T**2 - 23.9933*T*LN(T)
   + 133.615208*T - 8059.921 + 72636*T**(-1); 6000.0 N !
FUNCTION GHSERVV 273.0 1.2175E-7*T**3 - 0.003098*T**2 - 24.134*T*LN(T) +
   133.346053*T - 7930.43 + 69460*T**(-1); 790.0 Y -6.8E-7*T**3 +
   6.25E-5*T**2 - 25.9*T*LN(T) + 143.291093*T - 7967.842; 2183.0 Y
   -47.43*T*LN(T) + 321.140783*T - 41689.864 + 6.44389E+31*T**(-9); 4000.0 N !
FUNCTION GHSERWW 273.0 -5.33E-11*T**4 + 2.07E-7*T**3 - 0.001936*T**2 -
   24.1*T*LN(T) + 130.4*T - 7646.311 + 44500*T**(-1); 3695.0 Y -54.0*T*LN(T)
   + 389.362335*T - 82868.801 + 1.528621E+33*T**(-9); 6000.0 N !
FUNCTION GHSERYY 273.0 1.1125E-8*T**3 - 0.003845475*T**2 - 23.8685*T*LN(T) +
   117.532124*T - 7347.055 - 16486*T**(-1); 1500.0 Y -1.14182E-6*T**3 +
   0.0068095*T**2 - 40.2851*T*LN(T) + 229.831717*T - 15802.62; 1799.0 Y
   -7.2627E-8*T**3 + 0.002436461*T**2 - 58.2078433*T*LN(T) + 393.885821*T -
   72946.216 + 20866567*T**(-1); 6000.0 N !
FUNCTION GLA2O3D 273.0 -0.006854*T**2 - 120.629*T*LN(T) + 692.9664*T -
   1833257 + 808000*T**(-1) - 10000000*T**(-2); 6000.0 N !
FUNCTION GLA2O3H 273.0 -13.986*T + GLA2O3D# + 32350; 6000.0 N !
FUNCTION GLA2O3X 273.0 -18.555*T + GLA2O3D# + 43192; 6000.0 N !
FUNCTION GLABCC 273.0 -5.25865E-7*T**3 - 0.004045175*T**2 - 21.7919*T*LN(T) +
   88.072353*T - 3952.161; 800.0 Y 4.9547989E-5*T**3 - 0.387295093*T**2 +
   513.440708*T*LN(T) - 3565.08252*T + 321682.673 - 36581228*T**(-1); 1134.0
   Y -39.5388*T*LN(T) + 218.492988*T - 16377.894; 1193.0 Y -4.056395E-6*T**3
   + 0.053968535*T**2 - 163.413074*T*LN(T) + 1123.34397*T - 136609.91 +
   21167204*T**(-1); 2000.0 Y -34.3088*T*LN(T) + 174.836315*T - 8205.988;
   6000.0 N !
FUNCTION GLAFCC 273.0 -5.25865E-7*T**3 - 0.004045175*T**2 - 21.7919*T*LN(T) +
   89.878761*T - 6109.797; 1134.0 Y -3.066199E-6*T**3 + 0.042032405*T**2 -
   139.346741*T*LN(T) + 955.878375*T - 124598.976 + 20994153*T**(-1); 2000.0
   Y -34.3088*T*LN(T) + 178.54399*T - 12599.386; 6000.0 N !
FUNCTION GLAVNI 273.0 DGLAV# + GHSERNI#; 6000.0 N !
FUNCTION GLAVTI 273.0 DGLAV# + GHSERTI#; 6000.0 N !
FUNCTION GMN2NI2 273.0 -30156.6806; 6000.0 N !
FUNCTION GMN3NI 273.0 -20080.5831; 6000.0 N !
FUNCTION GMNBCC 273.0 -0.00744271*T**2 - 23.7*T*LN(T) + 127.85*T - 3235.3 +
   60000*T**(-1); 1519.0 Y -48*T*LN(T) + 307.7043*T - 23188.83 +
   1.265152E+30*T**(-9); 6000.0 N !
FUNCTION GMNFCC 273.0 -0.006*T**2 - 24.5177*T*LN(T) + 131.884*T - 3439.3 +
   69600*T**(-1); 1519.0 Y -48*T*LN(T) + 309.6664*T - 26070.1 +
   3.86196E+30*T**(-9); 6000.0 N !
FUNCTION GMNM23C6 273.0 50.966*T + 6*GHSERCC# + 23*GHSERMN# - 308065; 6000.0
   N !
FUNCTION GMNNI3 273.0 -21016.3924; 6000.0 N !
FUNCTION GMOFCC 273.0 0.63*T + GHSERMO# + 15200; 6000.0 N !
FUNCTION GMOHCP 273.0 -1.30927E-10*T**4 + 5.66283E-7*T**3 - 0.003443396*T**2
   - 23.56414*T*LN(T) + 131.9197*T + 3803.698 + 65812*T**(-1); 2896.0 Y
   -42.63829*T*LN(T) + 283.559746*T - 19006.41 - 4.849315E+33*T**(-9); 5000.0
   N !
FUNCTION GNIBCC 273.0 -3.556*T + GHSERNI# + 8715.084; 6000.0 N !
FUNCTION GNIHCP 273.0 1.2552*T + GHSERNI# + 1046; 6000.0 N !
FUNCTION GNIHCPA 273.0 1.2552*T + GHSERNIA# + 1046; 6000.0 N !
FUNCTION GNIM23C6 273.0 -84.71*T + 6*GHSERCC# + 23*GHSERNI# + 210000; 6000.0
   N !
FUNCTION GNIO 273.0 1.29092E-6*T**3 - 0.00931454*T**2 - 46.0391*T*LN(T) +
   276.208*T - 254927.2 + 382916*T**(-1); 1000.0 Y -8.11809E-7*T**3 +
   0.00254106*T**2 - 56.36068*T*LN(T) + 340.043*T - 256835.2 + 1270*T**(-1);
   1800.0 Y -7.80093E-7*T**3 + 0.00220246*T**2 - 55.75758*T*LN(T) + 337.305*T
   - 259131.4; 6000.0 N !
FUNCTION GPBCC 273.0 -2.418867E-6*T**3 + 0.0034121*T**2 - 25.55*T*LN(T) +
   135.412002*T + 18792.241 + 160095*T**(-1); 500.0 Y 3.93917E-7*T**3 -
   0.00957685*T**2 - 14.368*T*LN(T) + 64.411737*T + 23045.079 -
   141375*T**(-1); 852.35 Y -6.651929E-6*T**3 + 0.067272364*T**2 -
   149.4495562*T*LN(T) + 1012.76962*T - 74639.613 + 12495943*T**(-1); 1500.0
   Y -26.326*T*LN(T) + 140.579181*T + 20244.681; 3000.0 N !
FUNCTION GPDBCC 273.0 -1.8*T + GHSERPD# + 10500; 6000.0 N !
FUNCTION GPFCC 273.0 -2.418867E-6*T**3 + 0.0034121*T**2 - 25.55*T*LN(T) +
   135.534002*T + 10842.441 + 160095*T**(-1); 500.0 Y 3.93917E-7*T**3 -
   0.00957685*T**2 - 14.368*T*LN(T) + 64.533737*T + 15095.279 -
   141375*T**(-1); 852.35 Y -6.651929E-6*T**3 + 0.067272364*T**2 -
   149.4495562*T*LN(T) + 1012.89162*T - 82589.413 + 12495943*T**(-1); 1500.0
   Y -26.326*T*LN(T) + 140.701181*T + 12294.881; 3000.0 N !
FUNCTION GPRED 273.0 -2.418867E-6*T**3 + 0.0034121*T**2 - 25.55*T*LN(T) +
   148.672002*T - 25976.559 + 160095*T**(-1); 500.0 Y 3.93917E-7*T**3 -
   0.00957685*T**2 - 14.368*T*LN(T) + 77.671736*T - 21723.721 -
   141375*T**(-1); 852.35 Y -6.651929E-6*T**3 + 0.067272364*T**2 -
   149.4495562*T*LN(T) + 1026.02962*T - 119408.413 + 12495943*T**(-1); 1500.0
   Y -26.326*T*LN(T) + 153.839181*T - 24524.119; 3000.0 N !
FUNCTION GSIBCC 273.0 -22.5*T + GHSERSI# + 47000; 6000.0 N !
FUNCTION GSIFCC 273.0 -21.8*T + GHSERSI# + 51000; 6000.0 N !
FUNCTION GSIO2 273.0 4.9509742E-5*T**3 - 0.189203605*T**2 + 61.1323*T*LN(T) -
   360.892175*T - 900936.64 - 854401*T**(-1); 540.0 Y -9.09177E-5*T**3 +
   0.428883845*T**2 - 452.1367*T*LN(T) + 2882.67275*T - 1091193.54 +
   12476689*T**(-1); 770.0 Y -0.000235047657*T**3 + 1.28404426*T**2 -
   1404.5352*T*LN(T) + 9178.58655*T - 1563481.44 + 56402304*T**(-1); 848.0 Y
   -2.47E-10*T**3 - 0.00515995*T**2 - 58.4292*T*LN(T) + 356.218325*T -
   928732.923 - 95113*T**(-1); 1800.0 Y 6.78127E-7*T**3 - 0.01200315*T**2 -
   47.451*T*LN(T) + 281.229013*T - 924076.574 + 665385*T**(-1); 2900.0 Y
   -82.709*T*LN(T) + 544.992084*T - 957997.4; 6000.0 N !
FUNCTION GSSLIQ 273.0 -2.4942E-7*T**3 - 0.018629*T**2 - 15.504*T*LN(T) +
   77.905686*T - 4001.549 - 113945*T**(-1); 388.36 Y -0.010221416667*T**3 +
   32.79275*T**2 - 19762.4*T*LN(T) + 118449.601*T - 5285183.35 +
   264673500*T**(-1); 428.15 Y -0.052997333333*T**3 + 135.3045*T**2 -
   57607.3*T*LN(T) + 319914.094*T - 8174995.226; 432.25 Y
   -0.001013803333*T**3 + 2.845035*T**2 - 1371.85*T*LN(T) + 7758.85593*T -
   219408.801; 453.15 Y 5.18835E-5*T**3 - 0.2531915*T**2 + 202.958*T*LN(T) -
   1336.35027*T + 92539.872 - 8202200*T**(-1); 717.0 Y -32*T*LN(T) +
   176.37082*T - 6889.972; 6000.0 N !
FUNCTION GTI2NI 273.0 2.85345219*T + 0.33333*GHSERNIA# + 0.66666667*GHSERTIA#
   - 27514.218; 6000.0 N !
FUNCTION GTI2O3 273.0 -5.93279345E-6*T**3 - 0.099958898*T**2 -
   30.3934128*T*LN(T) + 185.96227*T - 1543640 - 117799.056*T**(-1); 470.0 Y
   -1.53383348E-10*T**3 - 0.00173711312*T**2 - 147.673862*T*LN(T) + 937.087*T
   - 1585377.8 + 2395423.68*T**(-1); 6000.0 N !
FUNCTION GTIBCC 273.0 -3.85519E-7*T**3 + 0.00411413*T**2 - 1.5835*T*LN(T) +
   1.098972*T + GHSERTI# + 6787.856 - 65428*T**(-1); 900.0 Y -1.87927E-7*T**3
   + 0.003539455*T**2 - 1.5881*T*LN(T) + 1.726111*T + GHSERTI# + 6539.75 -
   35472*T**(-1); 1155.0 Y -1.048055E-6*T**3 + 0.00936357*T**2 -
   7.4305*T*LN(T) + 38.389841*T + GHSERTI# + 5758.548 - 525090*T**(-1);
   1941.0 Y 1.533611E-6*T**3 - 0.030213169*T**2 + 106.3083366*T*LN(T) -
   821.233343*T + GHSERTI# + 151010.046 - 35299304*T**(-1); 4000.0 N !
FUNCTION GTIC 273.0 -0.0044617*T**2 - 42.248*T*LN(T) + 258*T - 175000 +
   31263*T**(-1) + 6960000000.0*T**(-3); 6000.0 N !
FUNCTION GTIFCC 273.0 -0.1*T + GHSERTI# + 6000; 6000.0 N !
FUNCTION GTIFCCA 273.0 -0.1*T + GHSERTIA# + 6000; 6000.0 N !
FUNCTION GTIN 273.0 -0.00092840476*T**2 - 52.458723*T*LN(T) + 330.4982*T -
   357905 + 871489.25*T**(-1) - 2413972100.0*T**(-3); 6000.0 N !
FUNCTION GTRID 273.0 -2.2791833E-5*T**3 - 0.0148714*T**2 - 25.1574*T*LN(T) +
   140.55925*T - 918008.73 + 66331*T**(-1); 388.0 Y -1.6835E-7*T**3 -
   0.02368535*T**2 - 37.8701*T*LN(T) + 224.53808*T - 921013.31; 433.0 Y
   4.6255E-6*T**3 - 0.03049985*T**2 - 35.605*T*LN(T) + 210.51651*T -
   919633.42 - 162026*T**(-1); 900.0 Y -3.786883E-6*T**3 + 0.03387055*T**2 -
   128.434*T*LN(T) + 848.3098*T - 979377.7 + 7070800*T**(-1); 1668.0 Y
   -4.63118E-7*T**3 + 0.003040245*T**2 - 77.5875*T*LN(T) + 493.58035*T -
   943685.26 + 2227125*T**(-1); 3300.0 Y -87.373*T*LN(T) + 587.37585*T -
   974449.74; 6000.0 N !
FUNCTION GVM23C6 273.0 -728.829*T*LN(T) + 4330.63*T - 990367 +
   5003425*T**(-1); 6000.0 N !
FUNCTION GWFCC 273.0 0.63*T + GHSERWW# + 19300; 6000.0 N !
FUNCTION GY2O3C 273.0 -0.00558*T**2 - 125.692*T*LN(T) + 763.71851*T - 1984291
   + 2344020.5*T**(-1) - 117305560.0*T**(-2); 6000.0 N !
FUNCTION GY2O3H 273.0 -0.00558*T**2 - 125.692*T*LN(T) + 754.10313*T - 1959291
   + 2344020.5*T**(-1) - 117305560.0*T**(-2); 6000.0 N !
FUNCTION GYYBCC 273.0 7.47591E-7*T**3 - 0.004150358*T**2 + 2.927924*T*LN(T) -
   20.009726*T + GHSERYY# + 5485.858 - 37863*T**(-1); 1500.0 Y
   1.900536E-6*T**3 - 0.014805333*T**2 + 19.344524*T*LN(T) - 132.309319*T +
   GHSERYY# + 13941.422 - 54349*T**(-1); 1752.0 Y 1.14182E-6*T**3 -
   0.0068095*T**2 + 5.265*T*LN(T) - 34.089733*T + GHSERYY# + 5594.895; 1799.0
   Y 9.13936E-7*T**3 - 0.0223552*T**2 + 98.0154419*T*LN(T) - 780.053385*T +
   GHSERYY# + 177760.169 - 52416530*T**(-1); 6000.0 N !
FUNCTION L04ALNI 273.0 U3ALNI#; 6000.0 N !
FUNCTION L14ALNI 273.0 U4ALNI#; 6000.0 N !
FUNCTION LB2ALNI 273.0 11.30117*T - 52440.88; 6000.0 N !
FUNCTION LB2NIVA 273.0 26.49419*T - 64024.38; 6000.0 N !
FUNCTION LF0 273.0 -11.7930695*T - 20455.7462; 6000.0 N !
FUNCTION LF1 273.0 15581.5125 - 8.49116947*T; 6000.0 N !
FUNCTION LFESIB0 273.0 11.62*T - 27809; 6000.0 N !
FUNCTION LFESIB1 273.0 -23088; 6000.0 N !
FUNCTION LFESIB2 273.0 3890; 6000.0 N !
FUNCTION LRMNNI 273.0 -6829.00181; 6000.0 N !
FUNCTION MCEX 273.0 -1.0E-5*T**3 + 0.005*T**2 - 6*T*LN(T) + 75*T + 355000 +
   950000*T**(-1); 1000.0 N !
FUNCTION U1ALNI 273.0 0.666666667*UALNI#; 6000.0 N !
FUNCTION U3ALNI 273.0 1.0E-8; 6000.0 N !
FUNCTION U4ALNI 273.0 7203.60609 - 3.7427303*T; 6000.0 N !
FUNCTION UALNI 273.0 4.39570389*T - 22212.8931; 6000.0 N !
FUNCTION UNDEF 273.0 1.0E-8; 6000.0 N !

TYPE_DEFINITION % SEQ * !
DEFINE_SYSTEM_DEFAULT ELEMENT 2 !
DEFAULT_COMMAND DEFINE_SYSTEM_ELEMENT VA !

TYPE_DEFINITION ^ GES AMEND_PHASE_DESCRIPTION ALPHA_MN MAGNETIC -3.0 0.28 !
TYPE_DEFINITION & GES AMEND_PHASE_DESCRIPTION BCC_A2 MAGNETIC -1.0 0.4 !
TYPE_DEFINITION * GES AMEND_PHASE_DESCRIPTION BCC_DISL MAGNETIC -1.0 0.4 !
TYPE_DEFINITION ( GES AMEND_PHASE_DESCRIPTION CEMENTITE MAGNETIC -3.0 0.28 !
TYPE_DEFINITION ) GES AMEND_PHASE_DESCRIPTION CORUND MAGNETIC -3.0 0.28 !
TYPE_DEFINITION ' GES AMEND_PHASE_DESCRIPTION FCC_A1 MAGNETIC -3.0 0.28 !
TYPE_DEFINITION A GES AMEND_PHASE_DESCRIPTION FEB MAGNETIC -3.0 0.28 !
TYPE_DEFINITION B GES AMEND_PHASE_DESCRIPTION HCP_A3 MAGNETIC -3.0 0.28 !
TYPE_DEFINITION C GES AMEND_PHASE_DESCRIPTION H_BCC MAGNETIC -1.0 0.4 !
TYPE_DEFINITION D GES AMEND_PHASE_DESCRIPTION M2B MAGNETIC -3.0 0.28 !
TYPE_DEFINITION E GES AMEND_PHASE_DESCRIPTION PDFE_L12 MAGNETIC -3.0 0.28 !
TYPE_DEFINITION F GES AMEND_PHASE_DESCRIPTION PDMN_P MAGNETIC -3.0 0.28 !
PHASE ALN %  2 1.0 1.0 !
CONSTITUENT ALN :AL:N: !

PHASE ALN_EQU %  2 1.0 1.0 !
CONSTITUENT ALN_EQU :AL,CR:N: !

PHASE ALPHA_MN %^  2 1.0 1.0 !
CONSTITUENT ALPHA_MN :AL,CO,CR,CU,FE,MN,MO,NI,PD,SI,V:C,N,VA: !

PHASE ANILITE %  2 1.75 1.0 !
CONSTITUENT ANILITE :CU:S: !

PHASE A_CHALC %  2 2.0 1.0 !
CONSTITUENT A_CHALC :CU:S: !

PHASE BCC_A2 %&  2 1.0 3.0 !
CONSTITUENT BCC_A2
   :AL,CO,CR,CU,FE,HF,LA,MN,MO,NB,NI,P,PD,S,SI,TI,V,W,Y:B,C,H,N,O,VA: !

PHASE BCC_B2 %  3 0.5 0.5 3.0 !
CONSTITUENT BCC_B2
   :AL,CO,CR,FE,MN,MO,NI,SI,TI:AL,CO,CR,FE,MN,MO,NI,SI,TI:C,VA: !

PHASE BCC_DISL %*  2 1.0 3.0 !
CONSTITUENT BCC_DISL :AL,CO,CR,CU,FE,MN,MO,NB,NI,S,SI,TI,V,W:B,C,N,VA: !

PHASE BETA_MN %  2 1.0 1.0 !
CONSTITUENT BETA_MN :AL,CO,CR,CU,FE,MN,MO,NI,PD,SI,V:C,N,VA: !

PHASE BETA_RHOMBO_B %  1 1.0 !
CONSTITUENT BETA_RHOMBO_B :B,CU,MN,NB,TI: !

PHASE BN_HP4 %  2 1.0 1.0 !
CONSTITUENT BN_HP4 :B:N: !

PHASE B_CHALC %  2 2.0 1.0 !
CONSTITUENT B_CHALC :CU:S: !

PHASE CEMENTITE %(  2 3.0 1.0 !
CONSTITUENT CEMENTITE :AL,CO,CR,CU,FE,MN,MO,NB,NI,SI,V,W:B,C,N: !

PHASE CHI_A12 %  4 24.0 10.0 24.0 2.0 !
CONSTITUENT CHI_A12 :FE:CR,MO,W:CR,FE,MO,NI,SI,W:C,VA: !

PHASE CO3MO %  2 3.0 1.0 !
CONSTITUENT CO3MO :CO:MO,W: !

PHASE CO3V %  2 3.0 1.0 !
CONSTITUENT CO3V :CO:V: !

PHASE CORUND %)  2 2.0 3.0 !
CONSTITUENT CORUND :AL,CR,FE,NI:O: !

PHASE COV3 %  2 1.0 3.0 !
CONSTITUENT COV3 :CO:V: !

PHASE COVELLITE %  2 1.0 1.0 !
CONSTITUENT COVELLITE :CU:S: !

PHASE CR2B %  2 0.666667 0.333333 !
CONSTITUENT CR2B :CR,FE,MN:B: !

PHASE CR2VC2 %  3 2.0 1.0 2.0 !
CONSTITUENT CR2VC2 :CR:V:C: !

PHASE CR3MN5 %  2 3.0 5.0 !
CONSTITUENT CR3MN5 :CR:MN: !

PHASE CR3NI2SIN %  4 3.0 2.0 1.0 1.0 !
CONSTITUENT CR3NI2SIN :CR,MO:FE,NI:SI:C,N: !

PHASE CR5B3 %  2 0.625 0.375 !
CONSTITUENT CR5B3 :CR:B: !

PHASE CRB %  2 0.5 0.5 !
CONSTITUENT CRB :CR,FE,NI:B: !

PHASE CU2S %  3 2.0 1.0 1.0 !
CONSTITUENT CU2S :CU,FE:S:S,VA: !

PHASE DIAMOND_A4 %  1 1.0 !
CONSTITUENT DIAMOND_A4 :AL,B,C,SI,TI: !

PHASE DIGENITE %  3 2.0 1.0 1.0 !
CONSTITUENT DIGENITE :CU,FE,VA:CU,VA:S: !

PHASE DISULF %  2 1.0 2.0 !
CONSTITUENT DISULF :FE:S: !

PHASE DJURLEITE %  2 1.93 1.0 !
CONSTITUENT DJURLEITE :CU:S: !

PHASE EPS_CARB %  2 6.0 3.0 !
CONSTITUENT EPS_CARB :AL,CO,CR,CU,FE,MN,MO,NB,NI,SI,TI,V,W:C,VA: !

PHASE ETA %  2 3.0 1.0 !
CONSTITUENT ETA :AL,FE,NI,TI:AL,FE,NI,TI: !

PHASE ETA_CARB %  2 6.0 3.0 !
CONSTITUENT ETA_CARB :AL,CO,CR,CU,FE,MN,MO,NB,NI,SI,TI,V,W:C,VA: !

PHASE FCC_A1 %'  2 1.0 1.0 !
CONSTITUENT FCC_A1
   :AL,CO,CR,CU,FE,HF,LA,MN,MO,NB,NI,P,PD,S,SI,TI,V,W,Y:B,C,H,N,O,VA: !

PHASE FC_MONO %  1 1.0 !
CONSTITUENT FC_MONO :S: !

PHASE FC_ORTHO %  1 1.0 !
CONSTITUENT FC_ORTHO :S: !

PHASE FE17Y2 %  2 0.895 0.105 !
CONSTITUENT FE17Y2 :FE:Y: !

PHASE FE24C10 %  2 24.0 10.0 !
CONSTITUENT FE24C10 :AL,CO,CR,CU,FE,MN,MO,NB,NI,SI,TI,V,W:C,VA: !

PHASE FE3NB3B4 %  3 3.0 3.0 4.0 !
CONSTITUENT FE3NB3B4 :FE:NB:B: !

PHASE FE4N %  2 4.0 1.0 !
CONSTITUENT FE4N :CR,FE,MN,NI:N: !

PHASE FEB %A  2 0.5 0.5 !
CONSTITUENT FEB :CR,FE,MN,NI:B: !

PHASE FENBB %  3 1.0 1.0 1.0 !
CONSTITUENT FENBB :FE:NB:B: !

PHASE FES_P %  2 1.0 1.0 !
CONSTITUENT FES_P :FE,MN:S: !

PHASE GRAPHITE %  1 1.0 !
CONSTITUENT GRAPHITE :B,C: !

PHASE G_PHASE %  3 16.0 6.0 7.0 !
CONSTITUENT G_PHASE :CO,NI:CR,FE,MN,NB,TI:SI: !

PHASE HALITE %  2 1.0 1.0 !
CONSTITUENT HALITE :AL,CR,FE,NI:O: !

PHASE HCP_A3 %B  2 1.0 0.5 !
CONSTITUENT HCP_A3 :AL,CO,CR,CU,FE,HF,MN,MO,NB,NI,PD,SI,TI,V,W,Y:B,C,N,O,VA: !

PHASE HF1O2_C %  2 0.33333 0.66667 !
CONSTITUENT HF1O2_C :HF:O: !

PHASE HF1O2_M %  2 0.33333 0.66667 !
CONSTITUENT HF1O2_M :HF:O: !

PHASE HF1O2_T %  2 0.33333 0.66667 !
CONSTITUENT HF1O2_T :HF:O: !

PHASE H_BCC %C  2 1.0 1.0 !
CONSTITUENT H_BCC :FE:H,VA: !

PHASE KSI_CARBIDE %  2 3.0 1.0 !
CONSTITUENT KSI_CARBIDE :AL,CO,CR,CU,FE,MN,MO,NB,NI,SI,TI,V,W:C,VA: !

PHASE KSI_FE5C2 %  2 5.0 2.0 !
CONSTITUENT KSI_FE5C2 :AL,CO,CR,CU,FE,MN,MO,NB,NI,SI,TI,V,W:C,VA: !

PHASE K_CARB %  3 3.0 1.0 1.0 !
CONSTITUENT K_CARB :FE,MN:AL:C,VA: !

PHASE LA2O3_A %  2 2.0 3.0 !
CONSTITUENT LA2O3_A :LA:O: !

PHASE LA2O3_C %  2 2.0 3.0 !
CONSTITUENT LA2O3_C :LA:O: !

PHASE LA2O3_H %  2 2.0 3.0 !
CONSTITUENT LA2O3_H :LA:O: !

PHASE LAVES_PHASE %  2 2.0 1.0 !
CONSTITUENT LAVES_PHASE
   :CO,CR,FE,MN,MO,NB,NI,SI,TI,V,W:CO,CR,FE,MN,MO,NB,NI,SI,TI,V,W: !

PHASE LIQUID %  1 1.0 !
CONSTITUENT LIQUID
   :AL,B,C,CO,CR,CU,FE,HF,LA,MN,MO,N,NB,NI,P,PD,S,SI,TI,V,W,Y: !

PHASE M12C %  3 6.0 6.0 1.0 !
CONSTITUENT M12C :CO:W:C: !

PHASE M23C6 %  3 20.0 3.0 6.0 !
CONSTITUENT M23C6 :CO,CR,FE,MN,NI,V:CO,CR,FE,MN,MO,NI,V,W:B,C: !

PHASE M2B %D  2 0.666667 0.333333 !
CONSTITUENT M2B :CR,FE,MN,MO,NI:B: !

PHASE M2P %  2 2.0 1.0 !
CONSTITUENT M2P :CR,FE,NB,TI:P: !

PHASE M3C2 %  2 3.0 2.0 !
CONSTITUENT M3C2 :CR,MO,V:C: !

PHASE M3P %  2 3.0 1.0 !
CONSTITUENT M3P :CR,FE,NB,TI:P: !

PHASE M5B6 %  2 5.0 6.0 !
CONSTITUENT M5B6 :FE,NB,V:B: !

PHASE M6C %  4 2.0 2.0 2.0 1.0 !
CONSTITUENT M6C :CO,FE,NI:CR,MO,W:CO,CR,FE,MO,NI,SI,V,W:C: !

PHASE M7C3 %  2 7.0 3.0 !
CONSTITUENT M7C3 :CO,CR,FE,MN,MO,NI,SI,V,W:C: !

PHASE MN3B4 %  2 0.428571 0.571429 !
CONSTITUENT MN3B4 :MN:B: !

PHASE MN6N4 %  2 6.0 4.0 !
CONSTITUENT MN6N4 :MN:N: !

PHASE MN6N5 %  2 6.0 5.0 !
CONSTITUENT MN6N5 :MN:N: !

PHASE MNB2 %  2 0.333333 0.666667 !
CONSTITUENT MNB2 :MN:B: !

PHASE MNB4 %  2 0.2 0.8 !
CONSTITUENT MNB4 :MN:B: !

PHASE MNNI %  2 0.5 0.5 !
CONSTITUENT MNNI :CU,MN,NI:CU,MN,NI: !

PHASE MNNI2 %  2 1.0 2.0 !
CONSTITUENT MNNI2 :MN,NI:NI: !

PHASE MNNI_T3 %  3 0.2069 0.5517 0.2414 !
CONSTITUENT MNNI_T3 :MN:NI:SI: !

PHASE MNSIN2 %  3 0.25 0.25 0.5 !
CONSTITUENT MNSIN2 :MN:SI:N: !

PHASE MNS_Q %  2 1.0 1.0 !
CONSTITUENT MNS_Q :CU,FE,MN:S: !

PHASE MO2M1B2 %  3 2.0 1.0 2.0 !
CONSTITUENT MO2M1B2 :MO:CR,FE:B: !

PHASE MOB %  2 0.5 0.5 !
CONSTITUENT MOB :MO:B: !

PHASE MOB2 %  2 1.0 2.0 !
CONSTITUENT MOB2 :MO:B,VA: !

PHASE MOC_ETA %  2 1.0 1.0 !
CONSTITUENT MOC_ETA :MO:C,VA: !

PHASE MU_PHASE %  3 7.0 2.0 4.0 !
CONSTITUENT MU_PHASE :CO,CR,FE,MN,MO,NB,NI,SI:MO,NB,W:CO,CR,FE,MO,NB,NI,SI,W:
   !

PHASE MU_PHASE_I %  4 6.0 1.0 2.0 4.0 !
CONSTITUENT MU_PHASE_I :CO,FE,MO:CO,FE,MO,SI:CO,FE,MO,SI:CO,FE,MO: !

PHASE NB3B2 %  2 3.0 2.0 !
CONSTITUENT NB3B2 :FE,NB:B: !

PHASE NBB %  2 1.0 1.0 !
CONSTITUENT NBB :NB:B,NB: !

PHASE NI5Y %  2 5.0 1.0 !
CONSTITUENT NI5Y :NI:Y: !

PHASE NITI2 %  2 2.0 1.0 !
CONSTITUENT NITI2 :NI,TI:NI,TI: !

PHASE O1_GAS %  1 1.0 !
CONSTITUENT O1_GAS :O: !

PHASE O_MN2B %  2 0.670691 0.329309 !
CONSTITUENT O_MN2B :MN:B: !

PHASE PD2MN %  2 0.3333 0.6667 !
CONSTITUENT PD2MN :MN:PD: !

PHASE PD3MN %  2 0.25 0.75 !
CONSTITUENT PD3MN :MN,PD:MN,PD: !

PHASE PD5MN3 %  2 0.375 0.625 !
CONSTITUENT PD5MN3 :MN:PD: !

PHASE PD6FE5MN2 %  3 0.3846 0.46154 0.15385 !
CONSTITUENT PD6FE5MN2 :FE:PD:MN: !

PHASE PDFE_L12 %E  2 0.25 0.75 !
CONSTITUENT PDFE_L12 :FE,MN,PD:FE,MN,PD: !

PHASE PDMN_AF %  2 0.5 0.5 !
CONSTITUENT PDMN_AF :MN,PD:MN,PD: !

PHASE PDMN_B2 %  2 0.5 0.5 !
CONSTITUENT PDMN_B2 :FE,MN,PD:FE,MN,PD: !

PHASE PDMN_P %F  2 0.5 0.5 !
CONSTITUENT PDMN_P :FE,MN,PD:FE,MN,PD: !

PHASE PI_PHASE %  3 7.0 13.0 4.0 !
CONSTITUENT PI_PHASE :FE,NI:CR,MO:N: !

PHASE PYRR %  2 1.0 1.0 !
CONSTITUENT PYRR :CU,FE,VA:S: !

PHASE R_PHASE %  3 27.0 14.0 12.0 !
CONSTITUENT R_PHASE :CR,FE,MN:MN,MO:CR,FE,MN,MO,NI,SI: !

PHASE SI3N4 %  2 3.0 4.0 !
CONSTITUENT SI3N4 :SI:N: !

PHASE SIGMA %  3 8.0 4.0 18.0 !
CONSTITUENT SIGMA :CO,FE,MN,NI:CR,MO,V:CO,CR,FE,MN,MO,NI,SI,V: !

PHASE SIO2 %  2 1.0 2.0 !
CONSTITUENT SIO2 :SI:O: !

PHASE SPINEL %  3 1.0 2.0 4.0 !
CONSTITUENT SPINEL :AL,CR,FE,NI:AL,CR,FE,NI:O: !

PHASE TI2O3 %  2 2.0 3.0 !
CONSTITUENT TI2O3 :TI:O: !

PHASE TI3B4 %  2 3.0 4.0 !
CONSTITUENT TI3B4 :CR,FE,NB,TI:B: !

PHASE TI4C2S2 %  3 4.0 2.0 2.0 !
CONSTITUENT TI4C2S2 :TI:C:S: !

PHASE TIB %  2 1.0 1.0 !
CONSTITUENT TIB :TI:B,TI: !

PHASE TIB2 %  2 1.0 2.0 !
CONSTITUENT TIB2 :B,CR,FE,TI:B,CR,FE,TI,VA: !

PHASE TIO2 %  2 1.0 2.0 !
CONSTITUENT TIO2 :TI:O: !

PHASE TIS %  2 1.0 1.0 !
CONSTITUENT TIS :TI:S: !

PHASE TRID %  2 1.0 2.0 !
CONSTITUENT TRID :SI:O: !

PHASE V3C2 %  2 3.0 2.0 !
CONSTITUENT V3C2 :V:C: !

PHASE WC %  2 1.0 1.0 !
CONSTITUENT WC :MO,W:C: !

PHASE Y2O3_C %  2 2.0 3.0 !
CONSTITUENT Y2O3_C :Y:O: !
