
$ Database file written 2009- 1-29
$ From database: User data 2009. 1.29    
 ELEMENT /-   ELECTRON_GAS              0.0000E+00  0.0000E+00  0.0000E+00!
 ELEMENT VA   VACUUM                    0.0000E+00  0.0000E+00  0.0000E+00!
 ELEMENT LA   DOUBLE_HCP(ABAC)          1.3891E+02  0.0000E+00  0.0000E+00!
 ELEMENT O    1/2_MOLE_O2(G)            1.5999E+01  4.3410E+03  1.0252E+02!
 ELEMENT Y    HCP(A3)                   8.8906E+01  5.9664E+03  4.4434E+01!
 ELEMENT ZR   HCP_A3                    9.1224E+01  5.5663E+03  3.9181E+01!
 ELEMENT AL   FCC_A1                    2.6982E+01  4.5773E+03  2.8321E+01!

 SPECIES AL+3                        AL1/+3!
 SPECIES AL1                         AL!
 SPECIES AL1O1                       AL1O1!
 SPECIES AL1O2                       AL1O2!
 SPECIES AL2                         AL2!
 SPECIES AL2O                        AL2O1!
 SPECIES AL2O1                       AL2O1!
 SPECIES AL2O2                       AL2O2!
 SPECIES AL2O3                       AL2O3!
 SPECIES ALO                         AL1O1!
 SPECIES ALO2                        AL1O2!
 SPECIES ALO3/2                      AL1O1.5!
 SPECIES LA+3                        LA1/+3!
 SPECIES LA1O1                       LA1O1!
 SPECIES LA2O3                       LA2O3!
 SPECIES LAO3/2                      LA1O1.5!
 SPECIES O-2                         O1/-2!
 SPECIES O2                          O2!
 SPECIES Y+3                         Y1/+3!
 SPECIES Y2O                         O1Y2!
 SPECIES Y2O2                        O2Y2!
 SPECIES Y2O3                        O3Y2!
 SPECIES YO                          O1Y1!
 SPECIES YO2                         O2Y1!
 SPECIES YO3/2                       O1.5Y1!
 SPECIES ZR+4                        ZR1/+4!
 SPECIES ZRO2                        O2ZR1!
 
  
 FUNCTION GHSEROO    2.98150E+02  -3480.87-25.503038*T
-11.136*T*LN(T)
     -.005098888*T**2+6.61846E-07*T**3-38365*T**(-1); 
 1.00000E+03  Y
      -6568.763+12.65988*T-16.8138*T*LN(T)-5.95798E-04*T**2
+6.781E-09*T**3
     +262905*T**(-1);  3.30000E+03  Y
      -13986.728+31.259625*T-18.9536*T*LN(T)-4.25243E-04*T**2
     +1.0721E-08*T**3+4383200*T**(-1);  6.00000E+03  N !
 FUNCTION GHSERZR    2.98150E+02  -7827.595+125.64905*T
-24.1618*T*LN(T)
     -.00437791*T**2+34971*T**(-1);  2.12800E+03  Y
      -26085.921+262.724183*T-42.144*T*LN(T)
-1.342895E+31*T**(-9);  
     6.00000E+03  N !
 FUNCTION GZRBCC     2.98140E+02  +7302.056-.70335*T
-1.445606*T*LN(T)
     +.004037826*T**2-9.7289735E-09*T**3-7.6142894E-11*T**4
-9737*T**(-1)
     +GHSERZR#;  2.12800E+03  Y
      -4620.034+1.55998*T+1.41035E+32*T**(-9)+GHSERZR#;  6.00000E+03  N !
 FUNCTION GZRFCC     2.98150E+02  +7600-.9*T+GHSERZR#;   6.00000E+03   N !
 FUNCTION GZRLIQ     2.98150E+02  +18147.703-9.080762*T
+1.6275E-22*T**7 +GHSERZR#;  2.12800E+03  Y
      +17804.649-8.91153*T+1.343E+31*T**(-9)+GHSERZR#;  
6.00000E+03  N !
 FUNCTION GZRO2M     2.98150E+02  -1126163.54+424.890806*T
     -69.3875137*T*LN(T)-.00375880141*T**2+683000*T**(-1);
   6.00000E+03   N   !
 FUNCTION GZRO2T     2.98150E+02  +5468-4*T+GZRO2M#;  
 6.00000E+03   N !
 FUNCTION GZRO2C     2.98150E+02  +10336-4*T+GZRO2T#;  
 6.00000E+03   N !
 FUNCTION GZRO2L     2.98150E+02  +87027-29.17432*T+GZRO2C#;
   6.00000E+03    N !
 FUNCTION GHSERLA    2.98140E+02  -7968.403+120.284604*T
  -26.34*T*LN(T)-.001295165*T**2;  5.50000E+02  Y
      -3381.413+59.06113*T-17.1659411*T*LN(T)-.008371705*T**2
     +6.8932E-07*T**3-399448*T**(-1);  2.00000E+03  Y
      -15608.882+181.390071*T-34.3088*T*LN(T);  4.00000E+03  N !
 FUNCTION GLABCC     2.98140E+02  -3952.161+88.072353*T
 -21.7919*T*LN(T)-.004045175*T**2-5.25865E-07*T**3; 
 8.00000E+02  Y
      +321682.673-3565.08252*T+513.440708*T*LN(T)
  -.387295093*T**2
     +4.9547989E-05*T**3-36581228*T**(-1);  1.13400E+03  Y
      -16377.894+218.492988*T-39.5388*T*LN(T);  1.19300E+03  Y
      -136609.91+1123.34397*T-163.413074*T*LN(T)
  +.053968535*T**2
     -4.056395E-06*T**3+21167204*T**(-1);  2.00000E+03  Y
      -8205.988+174.836315*T-34.3088*T*LN(T);  4.00000E+03  N !
 FUNCTION GLAFCC     2.98140E+02  -6109.797+89.878761*T
 -21.7919*T*LN(T)
     -.004045175*T**2-5.25865E-07*T**3;  1.13400E+03  Y
      -124598.976+955.878375*T-139.346741*T*LN(T)+.042032405*T**2
     -3.066199E-06*T**3+20994153*T**(-1);  2.00000E+03  Y
      -12599.386+178.54399*T-34.3088*T*LN(T);  4.00000E+03  N !
 FUNCTION GLALIQ     2.98140E+02  +5332.653+18.23012*T
 -11.0188191*T*LN(T)
     -.020171603*T**2+2.93775E-06*T**3-133541*T**(-1); 
 1.13400E+03  Y
      -3942.004+171.018431*T-34.3088*T*LN(T);  4.00000E+03  N !
 FUNCTION GLA2O3A    2.98150E+02  -1833257+692.9664*T
-120.629*T*LN(T)
     -.006854*T**2+808000*T**(-1)-10000000*T**(-2);
   6.00000E+03   N !
 FUNCTION GLA2O3H    2.98150E+02  +GLA2O3A#+32350-13.986*T;
   6.00000E+03    N !
 FUNCTION GLA2O3X    2.98150E+02  +GLA2O3A#+43192-18.555*T; 
  6.00000E+03    N !
 FUNCTION GLA2O3B    2.98150E+02  +GLA2O3A#+4139+2.215*T;   6.00000E+03   N !
 FUNCTION GLA2O3C    2.98150E+02  +GLA2O3A#+8337+7.788*T;   6.00000E+03   N !
 FUNCTION GLA2O3L    2.98150E+02  +141329-56.622*T+GLA2O3A#; 
  6.00000E+03     N !
FUNCTION GAL2O3_L   2.98140E+02  -1607850.8+405.559491*T
 -67.4804*T*LN(T)-.06747*T**2+1.4205433E-05*T**3+938780*T**(-1);  
  6.00000E+02  Y
    -1625385.57+712.394972*T-116.258*T*LN(T)-.0072257*T**2
     +2.78532E-07*T**3+2120700*T**(-1);  1.50000E+03  Y
      -1672662.69+1010.9932*T-156.058*T*LN(T)+.00709105*T**2
   -6.29402E-07*T**3+12366650*T**(-1);  1.91200E+03  Y
    +29178041.6-168360.926*T+21987.1791*T*LN(T)-6.99552951*T**2
   +4.10226192E-04*T**3-7.98843618E+09*T**(-1);  2.32700E+03  Y
    -1757702.05+1344.84833*T-192.464*T*LN(T);  4.00000E+03  N !
 FUNCTION GCORUND    2.98140E+02  -1707351.3+448.021092*T
  -67.4804*T*LN(T) -.06747*T**2+1.4205433E-05*T**3
  +938780*T**(-1); 6.00000E+02  Y
      -1724886.06+754.856573*T-116.258*T*LN(T)-.0072257*T**2
     +2.78532E-07*T**3+2120700*T**(-1);  1.50000E+03  Y
      -1772163.19+1053.4548*T-156.058*T*LN(T)+.00709105*T**2
     -6.29402E-07*T**3+12366650*T**(-1);  3.00000E+03  N !
 FUNCTION GHSERAL    2.98140E+02  
  -7976.15+137.093038*T-24.3671976*T*LN(T)
     -.001884662*T**2-8.77664E-07*T**3+74092*T**(-1); 
 7.00000E+02  Y
      -11276.24+223.048446*T-38.5844296*T*LN(T)+.018531982*T**2
     -5.764227E-06*T**3+74092*T**(-1);  9.33470E+02  Y
      -11278.378+188.684153*T-31.748192*T*LN(T)
 -1.230524E+28*T**(-9);    2.90000E+03  N !
 FUNCTION GHSERYY    2.98140E+02  -8011.09379+128.572856*T
     -25.6656992*T*LN(T)-.00175716414*T**2-4.17561786E-07*T**3
     +26911.509*T**(-1);  1.00000E+03  Y
      -7179.74574+114.497104*T-23.4941827*T*LN(T)
 -.0038211802*T**2
     -8.2534534E-08*T**3;  1.79515E+03  Y
      -67480.7761+382.124727*T-56.9527111*T*LN(T)
 +.00231774379*T**2
     -7.22513088E-08*T**3+18077162.6*T**(-1);  3.70000E+03  N !
 FUNCTION GBCCYY     2.98140E+02  -833.658863+123.667346*T
     -25.5832578*T*LN(T)-.00237175965*T**2+9.10372497E-09*T**3
     +27340.0687*T**(-1);  1.00000E+03  Y
      -1297.79829+134.528352*T-27.3038477*T*LN(T)
 -5.41757644E-04*T**2
     -3.05012175E-07*T**3;  1.79515E+03  Y
      +15389.4975+.981325399*T-8.88296647*T*LN(T)
 -.00904576576*T**2
     +4.02944768E-07*T**3-2542575.96*T**(-1);  3.70000E+03  N !
 FUNCTION GLIQYY     2.98140E+02  +2098.50738+119.41873*T
 -24.6467508*T*LN(T)
     -.00347023463*T**2-8.12981167E-07*T**3
 +23713.7332*T**(-1);  1.00000E+03  Y
    +7386.44846+19.4520171*T-9.0681627*T*LN(T)-.0189533369*T**2
     +1.7595327E-06*T**3;  1.79515E+03  Y
      -12976.5957+257.400783*T-43.0952*T*LN(T);  3.70000E+03  N !
 FUNCTION GY2O3R      2.98150E+02  -1976462+731.6512*T
-121.881*T*LN(T)-.00506*T**2+1090000*T**(-1)-13000000*T**(-2);  
 6.00000E+03   N !
 FUNCTION GZYO       2.98150E+02  +.4286*GZRO2C#+.2857*GY2O3R#
 -14550.3912 -.520412688*T;   6.00000E+03   N !
 FUNCTION GLA2O3F    2.98150E+02  +GLA2O3A#+50000;   
 6.00000E+03   N !
 FUNCTION GLA2O3T    2.98150E+02  +GLA2O3F#+10000;   
 6.00000E+03   N !
 FUNCTION GPYRLAZR   2.98150E+02  -4194070.04+1531.07053*T
 -260.811*T*LN(T)
     +1898400*T**(-1)-.00891455*T**2;   6.00000E+03   N !
FUNCTION GPYRYZR    2.98150E+02  +GY2O3R#+2*GZRO2C#+2.0E+03;
   6.00000E+03 N !
 FUNCTION GPYRYY     2.98150E+02  +2*GY2O3R#+5.0E+03;  
 6.00000E+03   N !
 FUNCTION GPYRLAY    2.98150E+02  +GLA2O3A#+GY2O3R#+9.0E4;
 6.00000E+03   N !
 FUNCTION GANCA      2.98150E+02  400000;   6.00000E+03   N !
 FUNCTION GANCA1     2.98150E+02  +8.0E+04;   6.00000E+03   N !
 FUNCTION GANCA2     2.98150E+02  +3E+04;   6.00000E+03   N !
 FUNCTION GPYROZR    2.98150E+02  +4*GZRO2C#+10000+16*T;
 6.00000E+03   N !
 FUNCTION GPYROLA    2.98150E+02  +2*GLA2O3A#+160000;  
 6.00000E+03   N !
 FUNCTION GREC1      298.15 0.0; 6000.00  N !
 FUNCTION GREC2      2.98150E+02  120000;   6.00000E+03   N !
 FUNCTION GREC3      298.15 0.0; 6000.00  N !
 FUNCTION GREC4      298.15 0.0; 6000.00  N !
 FUNCTION GREC5      298.15 0.0; 6000.00  N !
 FUNCTION GREC6      298.15 0.0; 6000.00  N !
 FUNCTION GREC7      298.15 0.0; 6000.00  N !
 FUNCTION GREC8      298.15 0.0; 6000.00  N !
 FUNCTION GREC9      298.15 0.0; 6000.00  N !
 FUNCTION GREC10     298.15 0.0; 6000.00  N !
 FUNCTION GREC11     298.15 0.0; 6000.00  N !
 FUNCTION GREC102    2.98150E+02  +1.61E+05;   6.00000E+03   N !
 FUNCTION GREC101    298.15 0.0; 6000.00  N !
 FUNCTION GREC103    298.15 0.0; 6000.00  N !
 FUNCTION GREC104    298.15 0.0; 6000.00  N !
 FUNCTION GREC105    298.15 0.0; 6000.00  N !
 FUNCTION GREC107    298.15 0.0; 6000.00  N !
 FUNCTION GREC108    298.15 0.0; 6000.00  N !
 FUNCTION GREC109    298.15 0.0; 6000.00  N !
 FUNCTION GREC111    298.15 0.0; 6000.00  N !
 FUNCTION GREC201    298.15 0.0; 6000.00  N !
 FUNCTION GREC202    298.15 0.0; 6000.00  N !
 FUNCTION GREC209    298.15 0.0; 6000.00  N !
 FUNCTION GREC301    298.15 0.0; 6000.00  N !
 FUNCTION GREC303    298.15 0.0; 6000.00  N !
 FUNCTION GREC309    298.15 0.0; 6000.00  N !
 FUNCTION GLAYP      2.98150E+02  -1946588.1+737.23096*T
   -123.362712*T*LN(T)
   -.00221374777*T**2+741418.873*T**(-1);   6.00000E+03   N !
 FUNCTION GLAAP      2.98150E+02  -1.8452069E+06+7.2320269E+02*T
   -1.1876439E+02*T*LN(T)-6.1979994E-03*T**2
   +1.3806196E+06*T**(-1);   6000   N !
 FUNCTION GYAG       2.98140E+02  -7363443.37+2714.0547*T-438.9177*T*LN(T)
     -.034315335*T**2+4800831.7*T**(-1);  3.00000E+03  N !
 FUNCTION GYAM       2.98140E+02  -5686303.14+2239.26502*T
   -368.158373*T*LN(T)-.018363228*T**2+4310328.16*T**(-1);  3.00E+03  N  !

 FUNCTION UN_ASS 298.15 0; 300 N !
 
 TYPE_DEFINITION % SEQ *!
 DEFINE_SYSTEM_DEFAULT ELEMENT 2 !
 DEFAULT_COMMAND DEF_SYS_ELEMENT VA /- !


  PHASE IONIC_LIQ:Y %  2 1   1 !
    CONSTITUENT IONIC_LIQ:Y :LA+3,Y+3,ZR+4 : O-2,ALO3/2 :  !

   PARAMETER G(IONIC_LIQ,LA+3:O-2;0)  2.98150E+02  
   +GLA2O3L#; 6.00000E+03  N REF0 !
   PARAMETER G(IONIC_LIQ,Y+3:O-2;0)  2.98150E+02  +108779
   -40.509*T+GY2O3R#;    6.00000E+03   N REF0 !
   PARAMETER G(IONIC_LIQ,ZR+4:O-2;0)  2.98150E+02  +2*GZRO2L#;
   6.00000E+03   N REF0 !
   PARAMETER G(IONIC_LIQ,ALO3/2;0)  2.98150E+02  +.5*GAL2O3_L#;   
   6.00000E+03   N REF:0 !
   PARAMETER G(IONIC_LIQ,LA+3,ZR+4:O-2;0)  2.98150E+02 
   -168369.962;   6.00000E+03   N REF0 !
   PARAMETER G(IONIC_LIQ,LA+3,ZR+4:O-2;1)  2.98150E+02  
   -27425.9756;   6.00000E+03   N REF0 !
   PARAMETER G(IONIC_LIQ,Y+3,ZR+4:O-2;0)  2.98150E+02  
   +11488.4008;    6.00000E+03   N REF0 !
   PARAMETER G(IONIC_LIQ,Y+3,ZR+4:O-2;1)  2.98150E+02 
   +1608.38521;   6.00000E+03   N REF0 !
  PARAMETER G(IONIC_LIQ,LA+3,ZR+4:O-2,ALO3/2;0)  2.98150E+02
   190000;    6.00000E+03   N REF:0 !
 PARAMETER G(IONIC_LIQ,LA+3:O-2,ALO3/2;0)  2.98150E+02  
  -1.88377985E+05;   6.00000E+03   N REF0 !
   PARAMETER G(IONIC_LIQ,LA+3:O-2,ALO3/2;1)  2.98150E+02  
  -6.87136229E+04;   6.00000E+03   N REF0 !
   PARAMETER G(IONIC_LIQ,ZR+4:O-2,ALO3/2;0)  2.98150E+02  
 50000;    6.00000E+03   N REF:0 !
   PARAMETER G(IONIC_LIQ,ZR+4:O-2,ALO3/2;1)  2.98150E+02 
  -40000;    6.00000E+03   N REF:0 !
   PARAMETER G(IONIC_LIQ,Y+3:O-2,ALO3/2;0)  2.98150E+02  
 -124454.878+12.2306693*T;   6.00000E+03   N REF:0 !
   PARAMETER G(IONIC_LIQ,Y+3:O-2,ALO3/2;1)  2.98150E+02  
  +266563.943-151.915942*T;   6.00000E+03   N REF:0 !
   PARAMETER G(IONIC_LIQ,Y+3,ZR+4:O-2,ALO3/2;0)  2.98150E+02 
 -89310.9277+8.79137067*T;   6.00000E+03   N REF:0 !


PHASE BETA_AL11LA1O18  %  3 11   1   18 !
    CONSTITUENT BETA_AL11LA1O18  :AL+3 : LA+3 : O-2 :  !

  PARAMETER G(BETA_AL11LA1O18,AL+3:LA+3:O-2;0)  2.98150E+02 
  +5.5*GCORUND#
  +.5*GLA2O3A#-6.90997182E+04-10*T;   6.00000E+03   N REF:0 !


 TYPE_DEFINITION & GES A_P_D CORUNDUM MAGNETIC  -3.0  
   2.80000E-01 !
 PHASE CORUNDUM  %&  3 2   1   3 !
    CONSTITUENT CORUNDUM  :AL+3 : VA : O-2 :  !

   PARAMETER G(CORUNDUM,AL+3:VA:O-2;0)  2.98150E+02  +GCORUND#;   
   6.00000E+03   N REF:0 !


 PHASE FLUORITE:I %  2 2   4 !
    CONSTITUENT FLUORITE:I :AL+3,LA+3,Y+3,ZR+4 : O-2,VA :  !

   PARAMETER G(FLUORITE,AL+3:O-2;0)  2.98150E+02 +GCORUND#
  +GHSEROO#+18.702165*T+100000;   6.00000E+03   N REF:0 !
  PARAMETER G(FLUORITE,AL+3:VA;0)  2.98150E+02  +GCORUND#
  -3*GHSEROO#+18.702165*T+100000;   6.00000E+03   N REF:0 !
   PARAMETER G(FLUORITE,LA+3:O-2;0)  2.98150E+02 
  +GLA2O3F#+GHSEROO#+18.702165*T;   6.00000E+03   N REF0 !
   PARAMETER G(FLUORITE,Y+3:O-2;0)  2.98150E+02  +GY2O3R#+4000
  +GHSEROO#+18.702165*T;   6.00000E+03   N REF0 !
   PARAMETER G(FLUORITE,ZR+4:O-2;0)  2.98150E+02  +2*GZRO2C#; 
  6.00000E+03  N REF0 !
   PARAMETER G(FLUORITE,LA+3:VA;0)  2.98150E+02  +GLA2O3F#
  -3*GHSEROO#+18.702165*T;   6.00000E+03   N REF0 !
   PARAMETER G(FLUORITE,Y+3:VA;0)  2.98150E+02  +GY2O3R#+4000
  -3*GHSEROO#+18.702165*T;   6.00000E+03   N REF0 !
   PARAMETER G(FLUORITE,ZR+4:VA;0)  2.98150E+02  +2*GZRO2C#
  -4*GHSEROO#;    6.00000E+03   N REF0 !
   PARAMETER G(FLUORITE,LA+3,ZR+4:*;0)  2.98150E+02  
 -170010.399;    6.00000E+03   N REF0 !
   PARAMETER G(FLUORITE,LA+3,ZR+4:*;1)  2.98150E+02  
 -134621.411;    6.00000E+03   N REF0 !
  PARAMETER G(FLUORITE,LA+3,Y+3:*;0)  2.98150E+02  -2.0E+03;   
   6.00000E+03   N  REF0 !
   PARAMETER G(FLUORITE,Y+3,ZR+4:*;0)  2.98150E+02  -130802.772
  +50.199044*T; 6.00000E+03   N REF0 !
   PARAMETER G(FLUORITE,Y+3,ZR+4:*;1)  2.98150E+02  +134082.393
  -42.0543792*T; 6.00000E+03   N REF0 !
  PARAMETER G(FLUORITE,LA+3,Y+3,ZR+4:*;0)  2.98150E+02  -52700
  -100*T;   6.00000E+03   N  REF0 !
 PARAMETER G(FLUORITE,AL+3,ZR+4:*;0)  2.98150E+02  18500; 
   6.00000E+03  N REF:0 !
 PARAMETER G(FLUORITE,AL+3,LA+3:*;0)  298.15  0; 6000  N REF:0 !


 PHASE LA2O3_A:I %  3 2   3   1 !
    CONSTITUENT LA2O3_A:I :LA+3,Y+3,ZR+4 : O-2 : O-2,VA :  !

   PARAMETER G(LA2O3_A,LA+3:O-2:O-2;0)  2.98150E+02   
  +GLA2O3A#+GHSEROO#;    6.00000E+03   N REF0 !
   PARAMETER G(LA2O3_A,Y+3:O-2:O-2;0)  2.98150E+02  +18569
  -5.439*T+GY2O3R#+GHSEROO#;   6.00000E+03   N REF0 !
   PARAMETER G(LA2O3_A,ZR+4:O-2:O-2;0)  2.98150E+02  +2*GZRO2C#
  +50000;    6.00000E+03   N REF0 !
   PARAMETER G(LA2O3_A,LA+3:O-2:VA;0)  2.98150E+02  +GLA2O3A#;
   6.00000E+03  N REF0 !
   PARAMETER G(LA2O3_A,Y+3:O-2:VA;0)  2.98150E+02  +18569
   -5.439*T+GY2O3R#;   6.00000E+03   N REF0 !
   PARAMETER G(LA2O3_A,ZR+4:O-2:VA;0)  2.98150E+02  +2*GZRO2C#
   -GHSEROO#+50000;   6.00000E+03   N REF0 !
   PARAMETER G(LA2O3_A,LA+3,Y+3:O-2:*;0)  2.98150E+02 
  +28018.3771;   6.00000E+03   N REF0 !
   PARAMETER G(LA2O3_A,LA+3,Y+3:O-2:*;1)  2.98150E+02  
   +3073.21531;   6.00000E+03   N REF0 !
   PARAMETER G(LA2O3_A,LA+3,ZR+4:O-2:*;0)  2.98150E+02  +20000;
   6.00000E+03  N REF0 !
   PARAMETER G(LA2O3_A,Y+3,ZR+4:O-2:*;0)  2.98150E+02  +100000;
   6.00000E+03   N REF0 !


 PHASE LA2O3_H:I %  3 2   3   1 !
    CONSTITUENT LA2O3_H:I :LA+3,Y+3,ZR+4 : O-2 : O-2,VA :  !

   PARAMETER G(LA2O3_H,LA+3:O-2:O-2;0)  2.98150E+02 
 +GLA2O3H#+GHSEROO#;   6.00000E+03   N REF0 !
   PARAMETER G(LA2O3_H,Y+3:O-2:O-2;0)  2.98150E+02  +25100
 -9.654*T+GY2O3R#+GHSEROO#;   6.00000E+03   N REF0 !
   PARAMETER G(LA2O3_H,ZR+4:O-2:O-2;0)  2.98150E+02  +2*GZRO2C#
 +20000;   6.00000E+03   N REF0 !
   PARAMETER G(LA2O3_H,LA+3:O-2:VA;0)  2.98150E+02  +GLA2O3H#;
   6.00000E+03  N REF0 !
   PARAMETER G(LA2O3_H,Y+3:O-2:VA;0)  2.98150E+02  +25100
  -9.654*T+GY2O3R#;   6.00000E+03   N REF0 !
   PARAMETER G(LA2O3_H,ZR+4:O-2:VA;0)  2.98150E+02  +2*GZRO2C#
 -GHSEROO#+20000;   6.00000E+03   N REF0 !
   PARAMETER G(LA2O3_H,LA+3,ZR+4:O-2:*;0)  2.98150E+02  -31800;   
  6.00000E+03   N REF0 !
   PARAMETER G(LA2O3_H,LA+3,Y+3:O-2:*;0)  2.98150E+02
 + 23306.5767;   6.00000E+03   N REF0 !
   PARAMETER G(LA2O3_H,Y+3,ZR+4:O-2:*;0)  2.98150E+02  180000;   6.00000E+03 
    N REF0 !


 PHASE LA2O3_X:I %  3 2   3   1 !
    CONSTITUENT LA2O3_X:I :LA+3,Y+3,ZR+4 : O-2 : O-2,VA :  !

   PARAMETER G(LA2O3_X,LA+3:O-2:O-2;0)  2.98150E+02 
 +GLA2O3X#+GHSEROO#;    6.00000E+03   N REF0 !
   PARAMETER G(LA2O3_X,Y+3:O-2:O-2;0)  2.98150E+02  +37765
 -14.223*T+GY2O3R#+GHSEROO#;   6.00000E+03   N REF0 !
   PARAMETER G(LA2O3_X,ZR+4:O-2:O-2;0)  2.98150E+02  +2*GZRO2C#
 +10000;   6.00000E+03   N REF0 !
   PARAMETER G(LA2O3_X,LA+3:O-2:VA;0)  2.98150E+02  +GLA2O3X#; 
  6.00000E+03  N REF0 !
   PARAMETER G(LA2O3_X,Y+3:O-2:VA;0)  2.98150E+02  +37765
 -14.223*T+GY2O3R#;    6.00000E+03   N REF0 !
   PARAMETER G(LA2O3_X,ZR+4:O-2:VA;0)  2.98150E+02  +2*GZRO2C#
 -GHSEROO#+10000;   6.00000E+03   N REF0 !
   PARAMETER G(LA2O3_X,LA+3,ZR+4:O-2:*;0)  2.98150E+02  -28000;   
  6.00000E+03   N REF0 !
   PARAMETER G(LA2O3_X,LA+3,Y+3:O-2:*;0)  2.98150E+02 
 +17647.4448;   6.00000E+03   N REF0 !
   PARAMETER G(LA2O3_X,Y+3,ZR+4:O-2:*;0)  2.98150E+02  180000;
   6.00000E+03  N REF0 !


 PHASE LAYP  %  3 1   1   3 !
    CONSTITUENT LAYP  :LA+3,Y+3 : LA+3,Y+3 : O-2 :  !

   PARAMETER G(LAYP,LA+3:LA+3:O-2;0)  2.98150E+02  +GLA2O3B#
  +3.0211333E+04;   6.00000E+03   N REF0 !
   PARAMETER G(LAYP,Y+3:LA+3:O-2;0)  2.98150E+02  +GLAYP#
  +4.0E+04;   6.00000E+03   N REF0 !
   PARAMETER G(LAYP,LA+3:Y+3:O-2;0)  2.98150E+02  +GLAYP#;   
   6.00000E+03   N REF0 !
   PARAMETER G(LAYP,Y+3:Y+3:O-2;0)  2.98150E+02  +11087
  -3.967*T+GY2O3R#+2.00E+04;   6.00000E+03   N REF0 !
   PARAMETER G(LAYP,LA+3:LA+3,Y+3:O-2;0)  2.98150E+02  
 +5.9991149E+03;  6.00000E+03   N REF0 !
   PARAMETER G(LAYP,Y+3:LA+3,Y+3:O-2;0)  2.98150E+02  
 +5.9991149E+03;  6.00000E+03   N REF0 !
   PARAMETER G(LAYP,LA+3,Y+3:*:O-2;0)  2.98150E+02  
  2.6810660E+04;   6.00000E+03   N REF0 !

 PHASE LAAP_ALO3LA  %  3 1   1   3 !
    CONSTITUENT LAAP_ALO3LA  :AL+3 : LA+3,Y+3 : O-2 :  !


 PARAMETER G(LAAP_ALO3LA,AL+3:LA+3:O-2;0)  298.15  +GLAAP#;
 6.00000E+03   N REF0 !
 PARAMETER G(LAAP_ALO3LA,AL+3:Y+3:O-2;0)  2.98150E+02  
  -2000+.5*GCORUND#+.5*GY2O3R#;   6.00000E+03   N REF0 !


   PHASE M2O3B:I %  3 2   3   1 !
  CONSTITUENT M2O3B:I :LA+3,Y+3,ZR+4 : O-2 : O-2,VA :  !

   PARAMETER G(M2O3B,LA+3:O-2:O-2;0)  2.98150E+02  
   +GLA2O3B#+GHSEROO#;    6.00000E+03   N REF0 !
   PARAMETER G(M2O3B,Y+3:O-2:O-2;0)  2.98150E+02  
   +11087-3.967*T+GY2O3R# +GHSEROO#; 6.00000E+03   N REF0 !
   PARAMETER G(M2O3B,ZR+4:O-2:O-2;0)  2.98150E+02 
   +2*GZRO2C#+5E4;   6.00000E+03   N REF0 !
   PARAMETER G(M2O3B,LA+3:O-2:VA;0)  2.98150E+02 +GLA2O3B#;
    6.00000E+03    N REF0 !
   PARAMETER G(M2O3B,Y+3:O-2:VA;0)  2.98150E+02  +11087
   -3.967*T+GY2O3R#;   6.00000E+03   N REF0 !
   PARAMETER G(M2O3B,ZR+4:O-2:VA;0)  2.98150E+02 +2*GZRO2C#
   -GHSEROO#+5E4;  6.00000E+03   N REF0 !
   PARAMETER G(M2O3B,LA+3,Y+3:O-2:*;0)  2.98150E+02 
  -56418.7854+36.2995704*T;  6.00000E+03   N REF0 !
   PARAMETER G(M2O3B,LA+3,Y+3:O-2:*;1)  2.98150E+02  
  -108889.852+49.7308132*T;  6.00000E+03   N REF0 !
   PARAMETER G(M2O3B,LA+3,ZR+4:O-2:*;0)  2.98150E+02  +2E4;   
   6.00000E+03    N REF0 !
   PARAMETER G(M2O3B,Y+3,ZR+4:O-2:*;0)  2.98150E+02  +2E4;   
   6.00000E+03    N REF0 !


 PHASE M2O3C:I %  3 2   3   1 !
    CONSTITUENT M2O3C:I :LA+3,Y+3,ZR+4 : O-2 : O-2,VA :  !

   PARAMETER G(M2O3C,LA+3:O-2:O-2;0)  2.98150E+02  
 +GLA2O3C#+GHSEROO#;   
  6.00000E+03   N REF0 !
 PARAMETER G(M2O3C,Y+3:O-2:O-2;0)  2.98150E+02  +GY2O3R#
 +GHSEROO#;   6.00000E+03   N REF0 !
   PARAMETER G(M2O3C,ZR+4:O-2:O-2;0)  2.98150E+02  +2*GZRO2C#;
   6.00000E+03   N REF0 !
   PARAMETER G(M2O3C,LA+3:O-2:VA;0)  2.98150E+02  +GLA2O3C#;
    6.00000E+03   N REF0 !
   PARAMETER G(M2O3C,Y+3:O-2:VA;0)  2.98150E+02  +GY2O3R#; 
  6.00000E+03   N  REF0 !
   PARAMETER G(M2O3C,ZR+4:O-2:VA;0)  2.98150E+02  +2*GZRO2C#
 -GHSEROO#;   6.00000E+03   N REF0 !
   PARAMETER G(M2O3C,Y+3,ZR+4:O-2:*;0)  2.98150E+02  -34451.2175
  +39.5035342*T;   6.00000E+03   N REF0 !
   PARAMETER G(M2O3C,LA+3,Y+3:O-2:*;0)  2.98150E+02  9976.47331;   
  6.00000E+03   N REF0 !
   PARAMETER G(M2O3C,LA+3,ZR+4:O-2:*;0)  2.98150E+02  45000;
   6.00000E+03    N REF0 !


 PHASE MONO:I %  2 2   4 !
    CONSTITUENT MONO:I :AL+3,LA+3,Y+3,ZR+4 : O-2,VA :  !

   PARAMETER G(MONO,LA+3:O-2;0)  2.98150E+02  +GLA2O3A#+GHSEROO#
 +100000+18.702165*T;   6.00000E+03   N REF0 !
   PARAMETER G(MONO,Y+3:O-2;0)  2.98150E+02  +GY2O3R#
 +53800+GHSEROO#+50.8*T
  +18.702165*T;   6.00000E+03   N REF0 !
   PARAMETER G(MONO,ZR+4:O-2;0)  2.98150E+02  +2*GZRO2M#;
   6.00000E+03   N REF0 !
   PARAMETER G(MONO,LA+3:VA;0)  2.98150E+02  +GLA2O3A#
  -3*GHSEROO#+100000+18.702165*T;   6.00000E+03   N REF0 !
   PARAMETER G(MONO,Y+3:VA;0)  2.98150E+02  +GY2O3R#+53800
 -3*GHSEROO#+50.8*T+18.7022*T;   6.00000E+03   N REF0 !
   PARAMETER G(MONO,ZR+4:VA;0)  2.98150E+02  +2*GZRO2M#
 -4*GHSEROO#;   6.00000E+03   N REF0 !
 PARAMETER G(MONO,AL+3:O-2;0)  2.98150E+02  +GCORUND#+GHSEROO#
   +200000+18.702165*T;   6.00000E+03   N REF:0 !
 PARAMETER G(MONO,AL+3:VA;0)  2.98150E+02  +GCORUND#
   -3*GHSEROO#+200000+18.702165*T;   6.00000E+03   N REF:0 !
   

 PHASE PYROCHLORE:I %  5 2   2   6   1   1 !
    CONSTITUENT PYROCHLORE:I :LA+3,Y+3,ZR+4 : LA+3,Y+3,ZR+4 : 
 O-2,VA : O-2 :  O-2,VA :  !

   PARAMETER G(PYROCHLORE,LA+3:LA+3:O-2:O-2:O-2;0)  2.98150E+02  
  +2*GPYRLAZR#+2*GHSEROO#-GPYROZR#+GANCA#+GREC1#+GREC2#+GREC3#;   
  6.00000E+03   N REF0 !
   PARAMETER G(PYROCHLORE,Y+3:LA+3:O-2:O-2:O-2;0)  2.98150E+02
   +GPYRLAZR#
  +GPYRYZR#-GPYROZR#+2*GHSEROO#+GANCA#+GREC2#+GREC3#
 +GREC4#+GREC301#+GREC303#;   6.00000E+03   N REF0 !
   PARAMETER G(PYROCHLORE,ZR+4:LA+3:O-2:O-2:O-2;0)  2.98150E+02
  +GPYRLAZR#
  +GHSEROO#+GANCA#+GREC2#+GREC3#+GREC4#;   6.00000E+03   N REF0 !
   PARAMETER G(PYROCHLORE,LA+3:Y+3:O-2:O-2:O-2;0)  2.98150E+02
  +GPYRLAZR#
  +GPYRYZR#-GPYROZR#+2*GHSEROO#+GANCA1#+GREC201#+GREC2#
  +GREC3#+GREC4#+GREC202#;   6.00000E+03   N REF0 !
   PARAMETER G(PYROCHLORE,Y+3:Y+3:O-2:O-2:O-2;0)  2.98150E+02  
 +2*GPYRYZR#+2*GHSEROO#-GPYROZR#+GANCA1#+GREC101#+GREC102#
 +GREC103#;   6.00000E+03   N REF0 !
   PARAMETER G(PYROCHLORE,ZR+4:Y+3:O-2:O-2:O-2;0)  2.98150E+02 
 +GPYRYZR#
  +GHSEROO#+GANCA1#+GREC102#+GREC103#+GREC104#;  
 6.00000E+03   N REF0 !
   PARAMETER G(PYROCHLORE,LA+3:ZR+4:O-2:O-2:O-2;0)  2.98150E+02
  +GPYRLAZR#
  +GHSEROO#+GREC2#;   6.00000E+03   N REF0 !
   PARAMETER G(PYROCHLORE,Y+3:ZR+4:O-2:O-2:O-2;0)  2.98150E+02
  +GPYRYZR#+GHSEROO#+GREC102#;   6.00000E+03   N REF0 !
   PARAMETER G(PYROCHLORE,ZR+4:ZR+4:O-2:O-2:O-2;0)  2.98150E+02
  +GPYROZR#;  6.00000E+03   N REF0 !
   PARAMETER G(PYROCHLORE,LA+3:LA+3:VA:O-2:O-2;0)  2.98150E+02 
  +5*GPYROZR#
  -10*GPYRLAZR#+6*GPYROLA#-4*GHSEROO#+134.8548*T-5*GANCA#
 -5*GREC1#+GREC2#
  +GREC3#+GREC5#+GREC8#+GREC9#;   6.00000E+03   N REF0 !
   PARAMETER G(PYROCHLORE,Y+3:LA+3:VA:O-2:O-2;0)  2.98150E+02 
 +GPYRYZR#
  -11*GPYRLAZR#+6*GPYROLA#-4*GHSEROO#-5*GANCA#-6*GREC1#
  +GREC2#+GREC3#+GREC4#
  +GREC5#+GREC8#+GREC10#+GREC11#-GREC301#+GREC309#;   
  6.00000E+03   N REF0 !
   PARAMETER G(PYROCHLORE,ZR+4:LA+3:VA:O-2:O-2;0)  2.98150E+02  
  +6*GPYROZR#
  -11*GPYRLAZR#+6*GPYROLA#-5*GHSEROO#+134.8548*T-5*GANCA#
 -6*GREC1#+GREC2#
  +GREC3#+GREC4#+GREC5#+GREC8#+GREC10#+GREC11#;  
  6.00000E+03   N REF0 !
   PARAMETER G(PYROCHLORE,LA+3:Y+3:VA:O-2:O-2;0)  2.98150E+02 
  +5*GPYROZR#
  -11*GPYRLAZR#+6*GPYROLA#-4*GHSEROO#+134.8548*T-6*GANCA#
 -6*GREC1#+GREC2#
  +GREC3#+GREC4#+GREC5#+GREC8#+GREC10#+GREC11#+GANCA1#
 +GREC202#+GREC209#;   
  6.00000E+03   N REF0 !
   PARAMETER G(PYROCHLORE,Y+3:Y+3:VA:O-2:O-2;0)  2.98150E+02  
 +6*GPYRYY#
  -10*GPYRYZR#+5*GPYROZR#-5*GANCA1#-4*GHSEROO#+134.8548*T
 -5*GREC101#
  +GREC102#+GREC103#+GREC105#+GREC108#+GREC109#;  
  6.00000E+03   N REF0 !
   PARAMETER G(PYROCHLORE,ZR+4:Y+3:VA:O-2:O-2;0)  2.98150E+02  
 +6*GPYRYY#
  -11*GPYRYZR#+6*GPYROZR#-5*GANCA1#-5*GHSEROO#+134.8548*T
 -6*GREC101#
  +GREC102#+GREC103#+GREC104#+GREC107#+GREC111#;  
  6.00000E+03   N REF0 !
   PARAMETER G(PYROCHLORE,LA+3:ZR+4:VA:O-2:O-2;0)  2.98150E+02 
  +6*GPYROZR#
  -11*GPYRLAZR#+6*GPYROLA#-5*GHSEROO#+134.8548*T-6*GANCA#
 -6*GREC1#+GREC2#+GREC5#+GREC8#;   6.00000E+03   N REF0 !
   PARAMETER G(PYROCHLORE,Y+3:ZR+4:VA:O-2:O-2;0)  2.98150E+02 
   +6*GPYRYY#
  -11*GPYRYZR#+6*GPYROZR#-6*GANCA1#-5*GHSEROO#+134.8548*T
  -6*GREC101#
  +GREC102#+GREC105#+GREC108#;   6.00000E+03   N REF0 !
   PARAMETER G(PYROCHLORE,ZR+4:ZR+4:VA:O-2:O-2;0)  2.98150E+02 
   +GPYROZR#-6*GHSEROO#+600000;   6.00000E+03   N REF0 !
   PARAMETER G(PYROCHLORE,LA+3:LA+3:O-2:O-2:VA;0)  2.98150E+02 
  +2*GPYRLAZR#
  -GPYROZR#+GHSEROO#+GANCA#+GREC1#;   6.00000E+03   N REF0 !
   PARAMETER G(PYROCHLORE,Y+3:LA+3:O-2:O-2:VA;0)  2.98150E+02 
  +GPYRLAZR#
  +GPYRYZR#-GPYROZR#+GHSEROO#+GANCA#+GREC301#;   
 6.00000E+03   N REF0 !
   PARAMETER G(PYROCHLORE,ZR+4:LA+3:O-2:O-2:VA;0)  2.98150E+02 
 +GPYRLAZR# +GANCA#;   6.00000E+03   N REF0 !
   PARAMETER G(PYROCHLORE,LA+3:Y+3:O-2:O-2:VA;0)  2.98150E+02
  +GPYRLAZR#
  +GPYRYZR#-GPYROZR#+GHSEROO#+GANCA1#+GREC201#; 
   6.00000E+03   N REF0 !
   PARAMETER G(PYROCHLORE,Y+3:Y+3:O-2:O-2:VA;0)  2.98150E+02 
  +2*GPYRYZR#
  -GPYROZR#+GANCA1#+GHSEROO#+GREC101#;   6.00000E+03   N REF0 !
   PARAMETER G(PYROCHLORE,ZR+4:Y+3:O-2:O-2:VA;0)  2.98150E+02
   +GPYRYZR#+GANCA1#;   6.00000E+03   N REF0 !
   PARAMETER G(PYROCHLORE,LA+3:ZR+4:O-2:O-2:VA;0)  2.98150E+02
   +GPYRLAZR#;  6.00000E+03   N REF0 !
   PARAMETER G(PYROCHLORE,Y+3:ZR+4:O-2:O-2:VA;0)  2.98150E+02
   +GPYRYZR#;    6.00000E+03   N REF0 !
   PARAMETER G(PYROCHLORE,ZR+4:ZR+4:O-2:O-2:VA;0)  2.98150E+02
   +GPYROZR#-GHSEROO#;   6.00000E+03   N REF0 !
   PARAMETER G(PYROCHLORE,LA+3:LA+3:VA:O-2:VA;0)  2.98150E+02 
  +6*GPYROLA#-10*GPYRLAZR#+5*GPYROZR#-5*GHSEROO#-5*GANCA#
  +134.8548*T-5*GREC1#;   6.00000E+03   N REF0 !
   PARAMETER G(PYROCHLORE,Y+3:LA+3:VA:O-2:VA;0)  2.98150E+02  
  +6*GPYRLAY#
  +6*GANCA2#-5*GPYRLAZR#-5*GPYRYZR#+5*GPYROZR#-5*GHSEROO#
 -5*GANCA#
  -5*GREC301#+134.8548*T;   6.00000E+03   N REF0 !
   PARAMETER G(PYROCHLORE,ZR+4:LA+3:VA:O-2:VA;0)  2.98150E+02  
 +6*GPYROLA#
  -11*GPYRLAZR#+6*GPYROZR#-6*GHSEROO#-5*GANCA#+134.8548*T
 -6*GREC1#+GREC7#;   
  6.00000E+03   N REF0 !
   PARAMETER G(PYROCHLORE,LA+3:Y+3:VA:O-2:VA;0)  2.98150E+02  
 +6*GPYRLAY#
  -5*GPYRLAZR#-5*GPYRYZR#+5*GPYROZR#-5*GHSEROO#-5*GANCA1#
 -5*GREC201#
  +134.8548*T;   6.00000E+03   N REF0 !
   PARAMETER G(PYROCHLORE,Y+3:Y+3:VA:O-2:VA;0)  2.98150E+02 
  +6*GPYRYY#
  -10*GPYRYZR#+5*GPYROZR#-5*GANCA1#-5*GHSEROO#+134.8548*T
 -5*GREC101#;   6.00000E+03   N REF0 !
   PARAMETER G(PYROCHLORE,ZR+4:Y+3:VA:O-2:VA;0)  2.98150E+02 
  +6*GPYRYY#
  -11*GPYRYZR#+6*GPYROZR#-5*GANCA1#-6*GHSEROO#+134.8548*T
 -6*GREC101#+GREC107#;   6.00000E+03   N REF0 !
   PARAMETER G(PYROCHLORE,LA+3:ZR+4:VA:O-2:VA;0)  2.98150E+02  
 +6*GPYROLA#
  -11*GPYRLAZR#+6*GPYROZR#-6*GHSEROO#-6*GANCA#+134.8548*T
 -6*GREC1#+GREC5#;   6.00000E+03   N REF0 !
   PARAMETER G(PYROCHLORE,Y+3:ZR+4:VA:O-2:VA;0)  2.98150E+02  
 +6*GPYRYY#
  -11*GPYRYZR#+6*GPYROZR#-6*GANCA1#-6*GHSEROO#+134.8548*T
 -6*GREC101#+GREC105#;   6.00000E+03   N REF0 !
   PARAMETER G(PYROCHLORE,ZR+4:ZR+4:VA:O-2:VA;0)  2.98150E+02  
 +GPYROZR#-7*GHSEROO#+700000;   6.00000E+03   N REF0 !


 PHASE TETR:I %  2 2   4 !
    CONSTITUENT TETR:I :AL+3,LA+3,Y+3,ZR+4 : O-2,VA :  !

   PARAMETER G(TETR,LA+3:O-2;0)  2.98150E+02  +GLA2O3T#+GHSEROO#
 +18.702165*T;  6.00000E+03   N REF0 !
   PARAMETER G(TETR,Y+3:O-2;0)  2.98150E+02  +GY2O3R#+20000
+GHSEROO#+18.702165*T;   6.00000E+03   N REF0 !
   PARAMETER G(TETR,ZR+4:O-2;0)  2.98150E+02  +2*GZRO2T#; 
  6.00000E+03   N  REF0 !
   PARAMETER G(TETR,LA+3:VA;0)  2.98150E+02  +GLA2O3T#
 -3*GHSEROO#+18.702165*T;   6.00000E+03   N REF0 !
   PARAMETER G(TETR,Y+3:VA;0)  2.98150E+02  +GY2O3R#+20000
 -3*GHSEROO#+18.702165*T;   6.00000E+03   N REF0 !
   PARAMETER G(TETR,ZR+4:VA;0)  2.98150E+02  +2*GZRO2T#
 -4*GHSEROO#;    6.00000E+03   N REF0 !
 PARAMETER G(TETR,AL+3:O-2;0)  2.98150E+02  +GCORUND#+GHSEROO#
  +18.702165*T+100000;   6.00000E+03   N REF:0 !
 PARAMETER G(TETR,AL+3:VA;0)  2.98150E+02  +GCORUND#-3*GHSEROO#
  +18.702165*T+100000;   6.00000E+03   N REF:0 !

   PARAMETER G(TETR,LA+3,ZR+4:*;0)  2.98150E+02  
 20000;   6.00000E+03   N REF0 !
   PARAMETER G(TETR,Y+3,ZR+4:*;0)  2.98150E+02  -126467.417+60*T;   
  6.00000E+03   N REF0 !


 PHASE ZR3Y4O12  %  3 3   4   12 !
    CONSTITUENT ZR3Y4O12  :ZR+4 : Y+3 : O-2 :  !

   PARAMETER G(ZR3Y4O12,ZR+4:Y+3:O-2;0)  2.98150E+02  +7*GZYO#;   
  6.00000E+03   N REF0 !

 PHASE YAG_AL5O12Y3  %  3 5   3   12 !
    CONSTITUENT YAG_AL5O12Y3  :AL+3 : LA+3,Y+3 : O-2 :  !

   PARAMETER G(YAG_AL5O12Y3,AL+3:Y+3:O-2;0)  2.98150E+02  +GYAG#
 -1684.32744;    6.00000E+03   N REF:0 !
 PARAMETER G(YAG_AL5O12Y3,AL+3:LA+3:O-2;0)  2.98150E+02
  +2.5*GCORUND+1.5*GLA2O3A-7E4;  6.00000E+03   N REF0 !

 PHASE YAM_AL2O9Y4  %  3 2   4   9 !
    CONSTITUENT YAM_AL2O9Y4  :AL+3 : LA+3,Y+3 : O-2 :  !

   PARAMETER G(YAM_AL2O9Y4,AL+3:Y+3:O-2;0)  2.98150E+02  +GYAM#
 -9035.18728+2.18809722*T;   6.00000E+03   N REF:0 !
 PARAMETER G(YAM_AL2O9Y4,AL+3:LA+3:O-2;0)  2.98150E+02 
 +2*GLA2O3A#+GCORUND#-63460+20*T;   6.00000E+03   N REF0 !

 PHASE YAP_ALO3Y  %  3 1   1   3 !
    CONSTITUENT YAP_ALO3Y  :AL+3 : LA+3,Y+3 : O-2 :  !

   PARAMETER G(YAP_ALO3Y,AL+3:Y+3:O-2;0)  2.98150E+02  -24515
  -6.8586*T+.5*GCORUND#+.5*GY2O3R#;   6.00000E+03   N REF:0 !
 PARAMETER G(YAP_ALO3Y,AL+3:LA+3:O-2;0)  2.98150E+02 
 +0.5*GLA2O3A#+0.5*GCORUND#-20000; 6.00000E+03   N REF0 !



 LIST_OF_REFERENCES
 NUMBER  SOURCE
  ! 