$ Database file written 2014- 6- 9
$ From database: User data 2014.06.09    

 ELEMENT /-   ELECTRON_GAS              0.0000E+00  0.0000E+00  0.0000E+00!
 ELEMENT VA   VACUUM                    0.0000E+00  0.0000E+00  0.0000E+00!
 ELEMENT C    GRAPHITE                  1.2011E+01  1.0540E+03  5.7400E+00!
 ELEMENT FE   BCC_A2                    5.5847E+01  4.4890E+03  2.7280E+01!


$------------------------------------------------------------------------------
$ definition of functions

 FUNCTION GHSERCC     0.01 -1049.14084-.09009204*T-2.75E-05*T**3; 103 Y
      -988.25091-7.39898691*T+1.76583*T*LN(T)-.01706952*T**2; 350 Y
      -17368.441+170.73*T-24.3*T*LN(T)-4.723E-04*T**2+2562600*T**(-1)
     -2.643E+08*T**(-2)+1.2E+10*T**(-3); 6000 N 10Hal !
 FUNCTION GA9C      298.15 +GHSERCC#; 6000 N 10Hal !
 FUNCTION GA4C        0.01 +1366.36944+.0375684493*T-1.795E-08*T**4;  78 Y
      +3386.8147-64.4266811*T+11.71699*T*LN(T)-.0304*T**2+3.3333E-06*T**3
     -91196.5*T**(-1)+2797170*T**(-2)-38820740*T**(-3); 330 Y
      -16359.441+175.61*T-24.31*T*LN(T)-4.723E-04*T**2+2698000*T**(-1)
     -2.61E+08*T**(-2)+1.11E+10*T**(-3); 6000 N 10Hal !
 FUNCTION GLIQC     298.15 +117369-24.63*T+GHSERCC#; 6000 N 91Din !
 FUNCTION GHSERFE     0.01 +4701.3908-9.929623*T-1.975E-06*T**4;  50 Y
      +4871.6848-41.511332*T+8.75517*T*LN(T)-.13106*T**2+9.2615E-05*T**3; 
     170 Y
      +1225.7+124.134*T-23.5143*T*LN(T)-.00439752*T**2-5.8927E-08*T**3
     +77359*T**(-1); 1811 Y
      -25383.581+299.31255*T-46*T*LN(T)+2.29603E+31*T**(-9); 6000 N 10Hal !
 FUNCTION GA2FE     298.15 +GHSERFE#; 6000 N 10Hal !
 FUNCTION GA1FE     298.15 -1462.4+8.282*T-1.15*T*LN(T)+6.4E-04*T**2
     +GHSERFE#; 1811 Y
      -1713.815+.940009*T+GHSERFE#+4.9251E+30*T**(-9); 6000 N !
 FUNCTION GA3FE     298.15 -3705.78+12.591*T-1.15*T*LN(T)+6.4E-04*T**2
     +GHSERFE#; 1811 Y
      -3957.195+5.249009*T+GHSERFE#+4.9251E+30*T**(-9); 6000 N 91Din !
 FUNCTION GL1FE     298.15 +12040.17-6.55843*T+GHSERFE#-3.67516E-21*T**7; 
     1811 Y
      -10838.83+291.302*T-46*T*LN(T); 6000 N 91Din !
 FUNCTION GFECEM      0.01 +11369.9377-5.64125926*T-8.333E-06*T**4;  43 Y
      +11622.6472-59.5377093*T+15.74232*T*LN(T)-.27565*T**2; 163 Y
      -10195.8608+690.949888*T-118.47637*T*LN(T)-7E-04*T**2+590527*T**(-1); 
     6000 N 10Hal !
$ constants derived from 91Din for implementation calculation of 07Br EOS  
 FUNCTION HSEA1FE   298.15 +7973.03; 6000 N !
 FUNCTION SSEA1FE   298.15 +35.902103; 6000 N !
 FUNCTION CSEA1FE   298.15 +25.19585; 6000 N !
 FUNCTION HSEA3FE   298.15 +5729.65; 6000 N !
 FUNCTION SSEA3FE   298.15 +31.593103; 6000 N !
 FUNCTION CSEA3FE   298.15 +25.19585; 6000 N !
 FUNCTION HSEL1FE   298.15 +21189.6; 6000 N !
 FUNCTION SSEL1FE   298.15 +43.421947; 6000 N !
 FUNCTION CSEL1FE   298.15 +24.42759; 6000 N !
 
 
$ parameters for BCC_A2 Fe
 FUNCTION FV0A2FE   298.15 +7.05E-06; 6000 N !
 FUNCTION FV1A2FE   298.15 +1.7E+11; 6000 N !
 FUNCTION FV2A2FE   298.15 +6.2; 6000 N !
 FUNCTION FV3A2FE   298.15 +300; 6000 N !
 FUNCTION FV4A2FE   298.15 +1.55; 6000 N !
 FUNCTION FV5A2FE   298.15 +6; 6000 N !
 FUNCTION FV6A2FE   298.15 +1; 6000 N !
 FUNCTION FV7A2FE   298.15 +15; 6000 N !
 FUNCTION FV8A2FE   298.15 +3; 6000 N !
 
$ implementation of EOS for BCC_A2 Fe 
 FUNCTION PA2FE     298.15 +FV1A2FE#**(-1)*P; 6000 N !
 FUNCTION BVA2FE    298.15 +FV0A2FE#*FV1A2FE#; 6000 N !
 FUNCTION IAA2FE    298.15 +FV2A2FE#-.333333333; 6000 N !
 FUNCTION FCA2FE    298.15 +1+1.33333333*IAA2FE#*PA2FE#; 6000 N !
 FUNCTION LFCA2FE   298.15 +1*LN(FCA2FE#); 6000 N !
 FUNCTION IXCA2FE   298.15 +1-IAA2FE#**(-1)+IAA2FE#**(-1)*EXP(.25*LFCA2FE#); 
     6000 N !
 FUNCTION G2A2FE    298.15 +1.5*FV2A2FE#**3-6*FV2A2FE#**2+8*FV2A2FE#
     -3.55555555; 6000 N !
 FUNCTION G1A2FE    298.15 -9*FV2A2FE#**3+27*FV2A2FE#**2-24*FV2A2FE#
     +5.33333333; 6000 N !
 FUNCTION GLA2FE    298.15 +9*FV2A2FE#**3-18*FV2A2FE#**2+9*FV2A2FE#
     -1.33333333; 6000 N !
 FUNCTION GM1A2FE   298.15 +3*FV2A2FE#**3-3*FV2A2FE#**2+FV2A2FE#-.111111111; 
     6000 N !
 FUNCTION GPCA2FE   298.15 +G2A2FE#*IXCA2FE#**(-2)+G1A2FE#*IXCA2FE#**(-1)
     -GLA2FE#*LN(IXCA2FE#)+GM1A2FE#*IXCA2FE#-G2A2FE#-G1A2FE#-GM1A2FE#; 6000 
     N !
 FUNCTION PTA2FE    298.15 +FV1A2FE#**(-1)*P+FV5A2FE#*FV1A2FE#**(-1)*P; 6000 
     N !
 FUNCTION IATA2FE   298.15 +3*FV6A2FE#-1; 6000 N !
 FUNCTION FTA2FE    298.15 +1+.666666667*IATA2FE#*PTA2FE#; 6000 N !
 FUNCTION LTFA2FE   298.15 +1*LN(FTA2FE#); 6000 N !
 FUNCTION IXTA2FE   298.15 +1-IATA2FE#**(-1)+IATA2FE#**(-1)*EXP(.5*LTFA2FE#);
      6000 N !
 FUNCTION GPTA2FE   298.15 +4.5*FV6A2FE#*IXTA2FE#**(-2)-3*IXTA2FE#**(-2)
     -9*FV6A2FE#*IXTA2FE#**(-1)+3*IXTA2FE#**(-1)+4.5*FV6A2FE#; 6000 N !
 FUNCTION PT2A2FE   298.15 +FV1A2FE#**(-1)*P+FV7A2FE#*FV1A2FE#**(-1)*P; 6000 N !
 FUNCTION IYA2FE    298.15 +1+2*FV8A2FE#*PT2A2FE#; 6000 N !
 FUNCTION LYA2FE    298.15 +.5*LN(IYA2FE#); 6000 N !
 FUNCTION YA2FE     298.15 +1*EXP(LYA2FE#); 6000 N !
 FUNCTION IBA2FE    298.15 +FV8A2FE#**(-1)-FV8A2FE#**(-1)*EXP(LYA2FE#); 6000 N !
 FUNCTION GBPA2FE   298.15 +1+FV8A2FE#-FV8A2FE#*EXP(IBA2FE#)
     -YA2FE#*EXP(IBA2FE#); 6000 N !
 FUNCTION GBMA2FE   298.15 +1+FV8A2FE#; 6000 N !
 FUNCTION GBRA2FE   298.15 +GBMA2FE#**(-1)*GBPA2FE#; 6000 N !
 FUNCTION IGRA2FE   298.15 +FV5A2FE#*FV4A2FE#**(-1)+FV4A2FE#**(-1); 6000 N !
 FUNCTION INTA2FE   298.15 +IGRA2FE#**(-1)*GPTA2FE#; 6000 N !
 FUNCTION TA2FE     298.15 +FV3A2FE#*EXP(INTA2FE#); 6000 N !
 FUNCTION IEA2FE    298.15 +1-1*EXP(-TA2FE#*T**(-1)); 6000 N !
 FUNCTION IE0A2FE   298.15 +1-1*EXP(-FV3A2FE#*T**(-1)); 6000 N !
 FUNCTION HSEA2FE   298.15 +4701.3908; 6000 N !
 FUNCTION SSEA2FE   298.15 +9.929623; 6000 N !
 FUNCTION DGTA2FE   298.15 -HSEA2FE#+SSEA2FE#*T+GHSERFE#-3*R#*T*LN(IE0A2FE#);
      6000 N !
      
$  parameters for FCC_A1 Fe
 FUNCTION FV0A1FE   298.15 +6.831E-06; 6000 N !
 FUNCTION FV1A1FE   298.15 +1.65E+11; 6000 N !
 FUNCTION FV2A1FE   298.15 +5.25; 6000 N !
 FUNCTION FV3A1FE   298.15 +250; 6000 N !
 FUNCTION FV4A1FE   298.15 +2.35; 6000 N !
 FUNCTION FV5A1FE   298.15 +5; 6000 N !
 FUNCTION FV6A1FE   298.15 +1; 6000 N !
 FUNCTION FV7A1FE   298.15 +10; 6000 N !
 FUNCTION FV8A1FE   298.15 +3; 6000 N !

$ implementation of EOS for FCC_A1 Fe
 FUNCTION PA1FE     298.15 +FV1A1FE#**(-1)*P; 6000 N !
 FUNCTION BVA1FE    298.15 +FV0A1FE#*FV1A1FE#; 6000 N !
 FUNCTION IAA1FE    298.15 +FV2A1FE#-.333333333; 6000 N !
 FUNCTION FCA1FE    298.15 +1+1.33333333*IAA1FE#*PA1FE#; 6000 N !
 FUNCTION LFCA1FE   298.15 +1*LN(FCA1FE#); 6000 N !
 FUNCTION IXCA1FE   298.15 +1-IAA1FE#**(-1)+IAA1FE#**(-1)*EXP(.25*LFCA1FE#); 
     6000 N !
 FUNCTION G2A1FE    298.15 +1.5*FV2A1FE#**3-6*FV2A1FE#**2+8*FV2A1FE#
     -3.55555555; 6000 N !
 FUNCTION G1A1FE    298.15 -9*FV2A1FE#**3+27*FV2A1FE#**2-24*FV2A1FE#
     +5.33333333; 6000 N !
 FUNCTION GLA1FE    298.15 +9*FV2A1FE#**3-18*FV2A1FE#**2+9*FV2A1FE#
     -1.33333333; 6000 N !
 FUNCTION GM1A1FE   298.15 +3*FV2A1FE#**3-3*FV2A1FE#**2+FV2A1FE#-.111111111; 
     6000 N !
 FUNCTION GPCA1FE   298.15 +G2A1FE#*IXCA1FE#**(-2)+G1A1FE#*IXCA1FE#**(-1)
     -GLA1FE#*LN(IXCA1FE#)+GM1A1FE#*IXCA1FE#-G2A1FE#-G1A1FE#-GM1A1FE#; 6000 
     N !
 FUNCTION PTA1FE    298.15 +FV1A1FE#**(-1)*P+FV5A1FE#*FV1A1FE#**(-1)*P; 6000 
     N !
 FUNCTION IATA1FE   298.15 +3*FV6A1FE#-1; 6000 N !
 FUNCTION FTA1FE    298.15 +1+.666666667*IATA1FE#*PTA1FE#; 6000 N !
 FUNCTION LTFA1FE   298.15 +1*LN(FTA1FE#); 6000 N !
 FUNCTION IXTA1FE   298.15 +1-IATA1FE#**(-1)+IATA1FE#**(-1)*EXP(.5*LTFA1FE#);
      6000 N !
 FUNCTION GPTA1FE   298.15 +4.5*FV6A1FE#*IXTA1FE#**(-2)-3*IXTA1FE#**(-2)
     -9*FV6A1FE#*IXTA1FE#**(-1)+3*IXTA1FE#**(-1)+4.5*FV6A1FE#; 6000 N !
 FUNCTION PT2A1FE   298.15 +FV1A1FE#**(-1)*P+FV7A1FE#*FV1A1FE#**(-1)*P; 6000 
     N !
 FUNCTION IYA1FE    298.15 +1+2*FV8A1FE#*PT2A1FE#; 6000 N !
 FUNCTION LYA1FE    298.15 +.5*LN(IYA1FE#); 6000 N !
 FUNCTION YA1FE     298.15 +1*EXP(LYA1FE#); 6000 N !
 FUNCTION IBA1FE    298.15 +FV8A1FE#**(-1)-FV8A1FE#**(-1)*EXP(LYA1FE#); 6000 
     N !
 FUNCTION GBPA1FE   298.15 +1+FV8A1FE#-FV8A1FE#*EXP(IBA1FE#)
     -YA1FE#*EXP(IBA1FE#); 6000 N !
 FUNCTION GBMA1FE   298.15 +1+FV8A1FE#; 6000 N !
 FUNCTION GBRA1FE   298.15 +GBMA1FE#**(-1)*GBPA1FE#; 6000 N !
 FUNCTION IGRA1FE   298.15 +FV5A1FE#*FV4A1FE#**(-1)+FV4A1FE#**(-1); 6000 N !
 FUNCTION INTA1FE   298.15 +IGRA1FE#**(-1)*GPTA1FE#; 6000 N !
 FUNCTION TA1FE     298.15 +FV3A1FE#*EXP(INTA1FE#); 6000 N !
 FUNCTION IEA1FE    298.15 +1-1*EXP(-TA1FE#*T**(-1)); 6000 N !
 FUNCTION IE0A1FE   298.15 +1-1*EXP(-FV3A1FE#*T**(-1)); 6000 N !
 FUNCTION GQHA1FE   298.15 +24.9435*T*LN(IEA1FE#)-24.9435*T*LN(IE0A1FE#); 
     6000 N !
 FUNCTION C0A1FE    298.15 +1-1*EXP(-.00335401644*FV3A1FE#); 6000 N !
 FUNCTION C20A1FE   298.15 
     +1.12494262E-05*FV3A1FE#**2*EXP(-.00335401644*FV3A1FE#); 6000 N !
 FUNCTION CP0A1FE   298.15 +24.9435*C20A1FE#*C0A1FE#**(-2); 6000 N !
 FUNCTION IH0A1FE   298.15 +24.9435*FV3A1FE#*C0A1FE#**(-1); 6000 N !
 FUNCTION H0A1FE    298.15 +IH0A1FE#*EXP(-.00335401644*FV3A1FE#); 6000 N !
 FUNCTION S0A1FE    298.15 
     +.00335401644*IH0A1FE#*EXP(-.00335401644*FV3A1FE#)-24.9435*LN(C0A1FE#); 
     6000 N !
 FUNCTION GT0A1FE   298.15 +24.9435*T*LN(IE0A1FE#)-H0A1FE#+S0A1FE#*T; 6000 N 
     !
 FUNCTION DGTA1FE     1 -.00167700822*CSEA1FE#*T**2
     +.00167700822*CP0A1FE#*T**2; 298.15 Y
      -HSEA1FE#+SSEA1FE#*T+GA1FE#-GT0A1FE#+149.075*CSEA1FE#-149.075*CP0A1FE#
     -CSEA1FE#*T+CP0A1FE#*T; 6000 N !
     
     
$ parameters for HCP_A3 Fe
 FUNCTION FV0A3FE   298.15 +6.678E-06; 6000 N !
 FUNCTION FV1A3FE   298.15 +1.8E+11; 6000 N !
 FUNCTION FV2A3FE   298.15 +5; 6000 N !
 FUNCTION FV3A3FE   298.15 +250; 6000 N !
 FUNCTION FV4A3FE   298.15 +2.85; 6000 N !
 FUNCTION FV5A3FE   298.15 +5.5; 6000 N !
 FUNCTION FV6A3FE   298.15 +.7; 6000 N !
 FUNCTION FV7A3FE   298.15 +10; 6000 N !
 FUNCTION FV8A3FE   298.15 +5; 6000 N !
 
$ implementation of EOS for HCP_A3 Fe
 FUNCTION PA3FE     298.15 +FV1A3FE#**(-1)*P; 6000 N !
 FUNCTION BVA3FE    298.15 +FV0A3FE#*FV1A3FE#; 6000 N !
 FUNCTION IAA3FE    298.15 +FV2A3FE#-.333333333; 6000 N !
 FUNCTION FCA3FE    298.15 +1+1.33333333*IAA3FE#*PA3FE#; 6000 N !
 FUNCTION LFCA3FE   298.15 +1*LN(FCA3FE#); 6000 N !
 FUNCTION IXCA3FE   298.15 +1-IAA3FE#**(-1)+IAA3FE#**(-1)*EXP(.25*LFCA3FE#); 
     6000 N !
 FUNCTION G2A3FE    298.15 +1.5*FV2A3FE#**3-6*FV2A3FE#**2+8*FV2A3FE#
     -3.55555555; 6000 N !
 FUNCTION G1A3FE    298.15 -9*FV2A3FE#**3+27*FV2A3FE#**2-24*FV2A3FE#
     +5.33333333; 6000 N !
 FUNCTION GLA3FE    298.15 +9*FV2A3FE#**3-18*FV2A3FE#**2+9*FV2A3FE#
     -1.33333333; 6000 N !
 FUNCTION GM1A3FE   298.15 +3*FV2A3FE#**3-3*FV2A3FE#**2+FV2A3FE#-.111111111; 
     6000 N !
 FUNCTION GPCA3FE   298.15 +G2A3FE#*IXCA3FE#**(-2)+G1A3FE#*IXCA3FE#**(-1)
     -GLA3FE#*LN(IXCA3FE#)+GM1A3FE#*IXCA3FE#-G2A3FE#-G1A3FE#-GM1A3FE#; 6000 
     N !
 FUNCTION PTA3FE    298.15 +FV1A3FE#**(-1)*P+FV5A3FE#*FV1A3FE#**(-1)*P; 6000 
     N !
 FUNCTION IATA3FE   298.15 +3*FV6A3FE#-1; 6000 N !
 FUNCTION FTA3FE    298.15 +1+.666666667*IATA3FE#*PTA3FE#; 6000 N !
 FUNCTION LTFA3FE   298.15 +1*LN(FTA3FE#); 6000 N !
 FUNCTION IXTA3FE   298.15 +1-IATA3FE#**(-1)+IATA3FE#**(-1)*EXP(.5*LTFA3FE#);
      6000 N !
 FUNCTION GPTA3FE   298.15 +4.5*FV6A3FE#*IXTA3FE#**(-2)-3*IXTA3FE#**(-2)
     -9*FV6A3FE#*IXTA3FE#**(-1)+3*IXTA3FE#**(-1)+4.5*FV6A3FE#; 6000 N !
 FUNCTION PT2A3FE   298.15 +FV1A3FE#**(-1)*P+FV7A3FE#*FV1A3FE#**(-1)*P; 6000 
     N !
 FUNCTION IYA3FE    298.15 +1+2*FV8A3FE#*PT2A3FE#; 6000 N !
 FUNCTION LYA3FE    298.15 +.5*LN(IYA3FE#); 6000 N !
 FUNCTION YA3FE     298.15 +1*EXP(LYA3FE#); 6000 N !
 FUNCTION IBA3FE    298.15 +FV8A3FE#**(-1)-FV8A3FE#**(-1)*EXP(LYA3FE#); 6000 
     N !
 FUNCTION GBPA3FE   298.15 +1+FV8A3FE#-FV8A3FE#*EXP(IBA3FE#)
     -YA3FE#*EXP(IBA3FE#); 6000 N !
 FUNCTION GBMA3FE   298.15 +1+FV8A3FE#; 6000 N !
 FUNCTION GBRA3FE   298.15 +GBMA3FE#**(-1)*GBPA3FE#; 6000 N !
 FUNCTION IGRA3FE   298.15 +FV5A3FE#*FV4A3FE#**(-1)+FV4A3FE#**(-1); 6000 N !
 FUNCTION INTA3FE   298.15 +IGRA3FE#**(-1)*GPTA3FE#; 6000 N !
 FUNCTION TA3FE     298.15 +FV3A3FE#*EXP(INTA3FE#); 6000 N !
 FUNCTION IEA3FE    298.15 +1-1*EXP(-TA3FE#*T**(-1)); 6000 N !
 FUNCTION IE0A3FE   298.15 +1-1*EXP(-FV3A3FE#*T**(-1)); 6000 N !
 FUNCTION GQHA3FE   298.15 +24.9435*T*LN(IEA3FE#)-24.9435*T*LN(IE0A3FE#); 
     6000 N !
 FUNCTION C0A3FE    298.15 +1-1*EXP(-.00335401644*FV3A3FE#); 6000 N !
 FUNCTION C20A3FE   298.15 
     +1.12494262E-05*FV3A3FE#**2*EXP(-.00335401644*FV3A3FE#); 6000 N !
 FUNCTION CP0A3FE   298.15 +24.9435*C20A3FE#*C0A3FE#**(-2); 6000 N !
 FUNCTION IH0A3FE   298.15 +24.9435*FV3A3FE#*C0A3FE#**(-1); 6000 N !
 FUNCTION H0A3FE    298.15 +IH0A3FE#*EXP(-.00335401644*FV3A3FE#); 6000 N !
 FUNCTION S0A3FE    298.15 
     +.00335401644*IH0A3FE#*EXP(-.00335401644*FV3A3FE#)-24.9435*LN(C0A3FE#); 
     6000 N !
 FUNCTION GT0A3FE   298.15 +24.9435*T*LN(IE0A3FE#)-H0A3FE#+S0A3FE#*T; 6000 N 
     !
 FUNCTION DGTA3FE     1 -.00167700822*CSEA3FE#*T**2
     +.00167700822*CP0A3FE#*T**2; 298.15 Y
      -HSEA3FE#+SSEA3FE#*T+GA3FE#-GT0A3FE#+149.075*CSEA3FE#-149.075*CP0A3FE#
     -CSEA3FE#*T+CP0A3FE#*T; 6000 N !
     
$ parameters for pure liquid Fe     
 FUNCTION FV0L1FE   298.15 +7.084E-06; 6000 N !
 FUNCTION FV1L1FE   298.15 +1.5E+11; 6000 N !
 FUNCTION FV2L1FE   298.15 +5.1; 6000 N !
 FUNCTION FV3L1FE   298.15 +250; 6000 N !
 FUNCTION FV4L1FE   298.15 +2.1; 6000 N !
 FUNCTION FV5L1FE   298.15 +6; 6000 N !
 FUNCTION FV6L1FE   298.15 +1; 6000 N !
 FUNCTION FV7L1FE   298.15 +13; 6000 N !
 FUNCTION FV8L1FE   298.15 +2.3; 6000 N !
 
 
$ implementation of EOS for pure liquid Fe 
 FUNCTION PL1FE     298.15 +FV1L1FE#**(-1)*P; 6000 N !
 FUNCTION BVL1FE    298.15 +FV0L1FE#*FV1L1FE#; 6000 N !
 FUNCTION IAL1FE    298.15 +FV2L1FE#-.333333333; 6000 N !
 FUNCTION FCL1FE    298.15 +1+1.33333333*IAL1FE#*PL1FE#; 6000 N !
 FUNCTION LFCL1FE   298.15 +1*LN(FCL1FE#); 6000 N !
 FUNCTION IXCL1FE   298.15 +1-IAL1FE#**(-1)+IAL1FE#**(-1)*EXP(.25*LFCL1FE#); 
     6000 N !
 FUNCTION G2L1FE    298.15 +1.5*FV2L1FE#**3-6*FV2L1FE#**2+8*FV2L1FE#
     -3.55555555; 6000 N !
 FUNCTION G1L1FE    298.15 -9*FV2L1FE#**3+27*FV2L1FE#**2-24*FV2L1FE#
     +5.33333333; 6000 N !
 FUNCTION GLL1FE    298.15 +9*FV2L1FE#**3-18*FV2L1FE#**2+9*FV2L1FE#
     -1.33333333; 6000 N !
 FUNCTION GM1L1FE   298.15 +3*FV2L1FE#**3-3*FV2L1FE#**2+FV2L1FE#-.111111111; 
     6000 N !
 FUNCTION GPCL1FE   298.15 +G2L1FE#*IXCL1FE#**(-2)+G1L1FE#*IXCL1FE#**(-1)
     -GLL1FE#*LN(IXCL1FE#)+GM1L1FE#*IXCL1FE#-G2L1FE#-G1L1FE#-GM1L1FE#; 6000 
     N !
 FUNCTION PTL1FE    298.15 +FV1L1FE#**(-1)*P+FV5L1FE#*FV1L1FE#**(-1)*P; 6000 
     N !
 FUNCTION IATL1FE   298.15 +3*FV6L1FE#-1; 6000 N !
 FUNCTION FTL1FE    298.15 +1+.666666667*IATL1FE#*PTL1FE#; 6000 N !
 FUNCTION LTFL1FE   298.15 +1*LN(FTL1FE#); 6000 N !
 FUNCTION IXTL1FE   298.15 +1-IATL1FE#**(-1)+IATL1FE#**(-1)*EXP(.5*LTFL1FE#);
      6000 N !
 FUNCTION GPTL1FE   298.15 +4.5*FV6L1FE#*IXTL1FE#**(-2)-3*IXTL1FE#**(-2)
     -9*FV6L1FE#*IXTL1FE#**(-1)+3*IXTL1FE#**(-1)+4.5*FV6L1FE#; 6000 N !
 FUNCTION PT2L1FE   298.15 +FV1L1FE#**(-1)*P+FV7L1FE#*FV1L1FE#**(-1)*P; 6000 
     N !
 FUNCTION IYL1FE    298.15 +1+2*FV8L1FE#*PT2L1FE#; 6000 N !
 FUNCTION LYL1FE    298.15 +.5*LN(IYL1FE#); 6000 N !
 FUNCTION YL1FE     298.15 +1*EXP(LYL1FE#); 6000 N !
 FUNCTION IBL1FE    298.15 +FV8L1FE#**(-1)-FV8L1FE#**(-1)*EXP(LYL1FE#); 6000 
     N !
 FUNCTION GBPL1FE   298.15 +1+FV8L1FE#-FV8L1FE#*EXP(IBL1FE#)
     -YL1FE#*EXP(IBL1FE#); 6000 N !
 FUNCTION GBML1FE   298.15 +1+FV8L1FE#; 6000 N !
 FUNCTION GBRL1FE   298.15 +GBML1FE#**(-1)*GBPL1FE#; 6000 N !
 FUNCTION IGRL1FE   298.15 +FV5L1FE#*FV4L1FE#**(-1)+FV4L1FE#**(-1); 6000 N !
 FUNCTION INTL1FE   298.15 +IGRL1FE#**(-1)*GPTL1FE#; 6000 N !
 FUNCTION TL1FE     298.15 +FV3L1FE#*EXP(INTL1FE#); 6000 N !
 FUNCTION IEL1FE    298.15 +1-1*EXP(-TL1FE#*T**(-1)); 6000 N !
 FUNCTION IE0L1FE   298.15 +1-1*EXP(-FV3L1FE#*T**(-1)); 6000 N !
 FUNCTION GQHL1FE   298.15 +24.9435*T*LN(IEL1FE#)-24.9435*T*LN(IE0L1FE#); 
     6000 N !
 FUNCTION C0L1FE    298.15 +1-1*EXP(-.00335401644*FV3L1FE#); 6000 N !
 FUNCTION C20L1FE   298.15 
     +1.12494262E-05*FV3L1FE#**2*EXP(-.00335401644*FV3L1FE#); 6000 N !
 FUNCTION CP0L1FE   298.15 +24.9435*C20L1FE#*C0L1FE#**(-2); 6000 N !
 FUNCTION IH0L1FE   298.15 +24.9435*FV3L1FE#*C0L1FE#**(-1); 6000 N !
 FUNCTION H0L1FE    298.15 +IH0L1FE#*EXP(-.00335401644*FV3L1FE#); 6000 N !
 FUNCTION S0L1FE    298.15 
     +.00335401644*IH0L1FE#*EXP(-.00335401644*FV3L1FE#)-24.9435*LN(C0L1FE#); 
     6000 N !
 FUNCTION GT0L1FE   298.15 +24.9435*T*LN(IE0L1FE#)-H0L1FE#+S0L1FE#*T; 6000 N 
     !
 FUNCTION DGTL1FE     1 -.00167700822*CSEL1FE#*T**2
     +.00167700822*CP0L1FE#*T**2; 298.15 Y
      -HSEL1FE#+SSEL1FE#*T+GL1FE#-GT0L1FE#+149.075*CSEL1FE#-149.075*CP0L1FE#
     -CSEL1FE#*T+CP0L1FE#*T; 6000 N !
     
$ parameters for Graphite
 FUNCTION FV0A9C    298.15 +5.273E-06; 6000 N !
 FUNCTION FV1A9C    298.15 +3.38E+10; 6000 N !
 FUNCTION FV2A9C    298.15 +8.9; 6000 N !
 FUNCTION FV3A9C1   298.15 +520; 6000 N !
 FUNCTION FV4A9C1   298.15 +.7; 6000 N !
 FUNCTION FV3A9C2   298.15 +1677; 6000 N !
 FUNCTION FV4A9C2   298.15 +.01; 6000 N !
 FUNCTION FV5A9C    298.15 +5; 6000 N !
 FUNCTION FV6A9C    298.15 +1; 6000 N !
 FUNCTION FV7A9C    298.15 +5; 6000 N !
 FUNCTION FV8A9C    298.15 +10; 6000 N !
 
$ implementation of EOS for graphite
 FUNCTION PA9C      298.15 +FV1A9C#**(-1)*P; 6000 N !
 FUNCTION BVA9C     298.15 +FV0A9C#*FV1A9C#; 6000 N !
 FUNCTION IAA9C     298.15 +FV2A9C#-.333333333; 6000 N !
 FUNCTION FCA9C     298.15 +1+1.33333333*IAA9C#*PA9C#; 6000 N !
 FUNCTION LFCA9C    298.15 +1*LN(FCA9C#); 6000 N !
 FUNCTION IXCA9C    298.15 +1-IAA9C#**(-1)+IAA9C#**(-1)*EXP(.25*LFCA9C#); 
     6000 N !
 FUNCTION G2A9C     298.15 +1.5*FV2A9C#**3-6*FV2A9C#**2+8*FV2A9C#-3.55555555;
      6000 N !
 FUNCTION G1A9C     298.15 -9*FV2A9C#**3+27*FV2A9C#**2-24*FV2A9C#+5.33333333;
      6000 N !
 FUNCTION GLA9C     298.15 +9*FV2A9C#**3-18*FV2A9C#**2+9*FV2A9C#-1.33333333; 
     6000 N !
 FUNCTION GM1A9C    298.15 +3*FV2A9C#**3-3*FV2A9C#**2+FV2A9C#-.111111111; 
     6000 N !
 FUNCTION GPCA9C    298.15 +G2A9C#*IXCA9C#**(-2)+G1A9C#*IXCA9C#**(-1)
     -GLA9C#*LN(IXCA9C#)+GM1A9C#*IXCA9C#-G2A9C#-G1A9C#-GM1A9C#; 6000 N !
 FUNCTION PTA9C     298.15 +FV1A9C#**(-1)*P+FV5A9C#*FV1A9C#**(-1)*P; 6000 N !
 FUNCTION IATA9C    298.15 +3*FV6A9C#-1; 6000 N !
 FUNCTION FTA9C     298.15 +1+.666666667*IATA9C#*PTA9C#; 6000 N !
 FUNCTION LTFA9C    298.15 +1*LN(FTA9C#); 6000 N !
 FUNCTION IXTA9C    298.15 +1-IATA9C#**(-1)+IATA9C#**(-1)*EXP(.5*LTFA9C#); 
     6000 N !
 FUNCTION GPTA9C    298.15 +4.5*FV6A9C#*IXTA9C#**(-2)-3*IXTA9C#**(-2)
     -9*FV6A9C#*IXTA9C#**(-1)+3*IXTA9C#**(-1)+4.5*FV6A9C#; 6000 N !
 FUNCTION PT2A9C    298.15 +FV1A9C#**(-1)*P+FV7A9C#*FV1A9C#**(-1)*P; 6000 N !
 FUNCTION IYA9C     298.15 +1+2*FV8A9C#*PT2A9C#; 6000 N !
 FUNCTION LYA9C     298.15 +.5*LN(IYA9C#); 6000 N !
 FUNCTION YA9C      298.15 +1*EXP(LYA9C#); 6000 N !
 FUNCTION IBA9C     298.15 +FV8A9C#**(-1)-FV8A9C#**(-1)*EXP(LYA9C#); 6000 N !
 FUNCTION GBPA9C    298.15 +1+FV8A9C#-FV8A9C#*EXP(IBA9C#)-YA9C#*EXP(IBA9C#); 
     6000 N !
 FUNCTION GBMA9C    298.15 +1+FV8A9C#; 6000 N !
 FUNCTION GBRA9C    298.15 +GBMA9C#**(-1)*GBPA9C#; 6000 N !
 FUNCTION IGRA9C1   298.15 +FV5A9C#*FV4A9C1#**(-1)+FV4A9C1#**(-1); 6000 N !
 FUNCTION INTA9C1   298.15 +IGRA9C1#**(-1)*GPTA9C#; 6000 N !
 FUNCTION TA9C1     298.15 +FV3A9C1#*EXP(INTA9C1#); 6000 N !
 FUNCTION IEA9C1    298.15 +1-1*EXP(-TA9C1#*T**(-1)); 6000 N !
 FUNCTION IE0A9C1   298.15 +1-1*EXP(-FV3A9C1#*T**(-1)); 6000 N !
 FUNCTION IGRA9C2   298.15 +FV5A9C#*FV4A9C2#**(-1)+FV4A9C2#**(-1); 6000 N !
 FUNCTION INTA9C2   298.15 +IGRA9C2#**(-1)*GPTA9C#; 6000 N !
 FUNCTION TA9C2     298.15 +FV3A9C2#*EXP(INTA9C2#); 6000 N !
 FUNCTION IEA9C2    298.15 +1-1*EXP(-TA9C2#*T**(-1)); 6000 N !
 FUNCTION IE0A9C2   298.15 +1-1*EXP(-FV3A9C2#*T**(-1)); 6000 N !
 FUNCTION HSEA9C    298.15 -1049.14084; 6000 N !
 FUNCTION SSEA9C    298.15 +.09009204; 6000 N !
 FUNCTION DGTA9C    298.15 -HSEA9C#+SSEA9C#*T+GHSERCC#-2*R#*T*LN(IE0A9C2#)
     -R#*T*LN(IE0A9C1#); 6000 N !
     
     
$ parameters for diamond     
 FUNCTION FV0A4C    298.15 +3.4145E-06; 6000 N !
 FUNCTION FV1A4C    298.15 +4.47E+11; 6000 N !
 FUNCTION FV2A4C    298.15 +3.5; 6000 N !
 FUNCTION FV3A4C    298.15 +1650; 6000 N !
 FUNCTION FV4A4C    298.15 +.93; 6000 N !
 FUNCTION FV5A4C    298.15 +5; 6000 N !
 FUNCTION FV6A4C    298.15 +1; 6000 N !
 FUNCTION FV7A4C    298.15 +5; 6000 N !
 FUNCTION FV8A4C    298.15 +10; 6000 N !
 
$ impplementation of EOS for diamond
 FUNCTION PA4C      298.15 +FV1A4C#**(-1)*P; 6000 N !
 FUNCTION BVA4C     298.15 +FV0A4C#*FV1A4C#; 6000 N !
 FUNCTION IAA4C     298.15 +FV2A4C#-.333333333; 6000 N !
 FUNCTION FCA4C     298.15 +1+1.33333333*IAA4C#*PA4C#; 6000 N !
 FUNCTION LFCA4C    298.15 +1*LN(FCA4C#); 6000 N !
 FUNCTION IXCA4C    298.15 +1-IAA4C#**(-1)+IAA4C#**(-1)*EXP(.25*LFCA4C#); 
     6000 N !
 FUNCTION G2A4C     298.15 +1.5*FV2A4C#**3-6*FV2A4C#**2+8*FV2A4C#-3.55555555;
      6000 N !
 FUNCTION G1A4C     298.15 -9*FV2A4C#**3+27*FV2A4C#**2-24*FV2A4C#+5.33333333;
      6000 N !
 FUNCTION GLA4C     298.15 +9*FV2A4C#**3-18*FV2A4C#**2+9*FV2A4C#-1.33333333; 
     6000 N !
 FUNCTION GM1A4C    298.15 +3*FV2A4C#**3-3*FV2A4C#**2+FV2A4C#-.111111111; 
     6000 N !
 FUNCTION GPCA4C    298.15 +G2A4C#*IXCA4C#**(-2)+G1A4C#*IXCA4C#**(-1)
     -GLA4C#*LN(IXCA4C#)+GM1A4C#*IXCA4C#-G2A4C#-G1A4C#-GM1A4C#; 6000 N !
 FUNCTION PTA4C     298.15 +FV1A4C#**(-1)*P+FV5A4C#*FV1A4C#**(-1)*P; 6000 N !
 FUNCTION IATA4C    298.15 +3*FV6A4C#-1; 6000 N !
 FUNCTION FTA4C     298.15 +1+.666666667*IATA4C#*PTA4C#; 6000 N !
 FUNCTION LTFA4C    298.15 +1*LN(FTA4C#); 6000 N !
 FUNCTION IXTA4C    298.15 +1-IATA4C#**(-1)+IATA4C#**(-1)*EXP(.5*LTFA4C#); 
     6000 N !
 FUNCTION GPTA4C    298.15 +4.5*FV6A4C#*IXTA4C#**(-2)-3*IXTA4C#**(-2)
     -9*FV6A4C#*IXTA4C#**(-1)+3*IXTA4C#**(-1)+4.5*FV6A4C#; 6000 N !
 FUNCTION PT2A4C    298.15 +FV1A4C#**(-1)*P+FV7A4C#*FV1A4C#**(-1)*P; 6000 N !
 FUNCTION IYA4C     298.15 +1+2*FV8A4C#*PT2A4C#; 6000 N !
 FUNCTION LYA4C     298.15 +.5*LN(IYA4C#); 6000 N !
 FUNCTION YA4C      298.15 +1*EXP(LYA4C#); 6000 N !
 FUNCTION IBA4C     298.15 +FV8A4C#**(-1)-FV8A4C#**(-1)*EXP(LYA4C#); 6000 N !
 FUNCTION GBPA4C    298.15 +1+FV8A4C#-FV8A4C#*EXP(IBA4C#)-YA4C#*EXP(IBA4C#); 
     6000 N !
 FUNCTION GBMA4C    298.15 +1+FV8A4C#; 6000 N !
 FUNCTION GBRA4C    298.15 +GBMA4C#**(-1)*GBPA4C#; 6000 N !
 FUNCTION IGRA4C    298.15 +FV5A4C#*FV4A4C#**(-1)+FV4A4C#**(-1); 6000 N !
 FUNCTION INTA4C    298.15 +IGRA4C#**(-1)*GPTA4C#; 6000 N !
 FUNCTION TA4C      298.15 +FV3A4C#*EXP(INTA4C#); 6000 N !
 FUNCTION IEA4C     298.15 +1-1*EXP(-TA4C#*T**(-1)); 6000 N !
 FUNCTION IE0A4C    298.15 +1-1*EXP(-FV3A4C#*T**(-1)); 6000 N !
 FUNCTION HSEA4C    298.15 +1366.36944; 6000 N !
 FUNCTION SSEA4C    298.15 -.0375684493; 6000 N !
 FUNCTION DGTA4C    298.15 -HSEA4C#+SSEA4C#*T+GA4C#-3*R#*T*LN(IE0A4C#); 6000 N !
 
$ parameters for liquid carbon - high pressure part of EOS
 FUNCTION FV0L1C    298.15 +3.8E-06; 6000 N !
 FUNCTION FV1L1C    298.15 +3E+11; 6000 N !
 FUNCTION FV2L1C    298.15 +4; 6000 N !
 FUNCTION FV3L1C    298.15 +1350; 6000 N !
 FUNCTION FV4L1C    298.15 +1; 6000 N !
 FUNCTION FV5L1C    298.15 +5; 6000 N !
 FUNCTION FV6L1C    298.15 +1; 6000 N !
 FUNCTION FV7L1C    298.15 +5; 6000 N !
 FUNCTION FV8L1C    298.15 +5; 6000 N !
 
$ implementation of EOS for liquid carbon - high pressure part
 FUNCTION PL1C      298.15 +FV1L1C#**(-1)*P; 6000 N !
 FUNCTION BVL1C     298.15 +FV0L1C#*FV1L1C#; 6000 N !
 FUNCTION IAL1C     298.15 +FV2L1C#-.333333333; 6000 N !
 FUNCTION FCL1C     298.15 +1+1.33333333*IAL1C#*PL1C#; 6000 N !
 FUNCTION LFCL1C    298.15 +1*LN(FCL1C#); 6000 N !
 FUNCTION IXCL1C    298.15 +1-IAL1C#**(-1)+IAL1C#**(-1)*EXP(.25*LFCL1C#); 
     6000 N !
 FUNCTION G2L1C     298.15 +1.5*FV2L1C#**3-6*FV2L1C#**2+8*FV2L1C#-3.55555555;
      6000 N !
 FUNCTION G1L1C     298.15 -9*FV2L1C#**3+27*FV2L1C#**2-24*FV2L1C#+5.33333333;
      6000 N !
 FUNCTION GLL1C     298.15 +9*FV2L1C#**3-18*FV2L1C#**2+9*FV2L1C#-1.33333333; 
     6000 N !
 FUNCTION GM1L1C    298.15 +3*FV2L1C#**3-3*FV2L1C#**2+FV2L1C#-.111111111; 
     6000 N !
 FUNCTION GPCL1C    298.15 +G2L1C#*IXCL1C#**(-2)+G1L1C#*IXCL1C#**(-1)
     -GLL1C#*LN(IXCL1C#)+GM1L1C#*IXCL1C#-G2L1C#-G1L1C#-GM1L1C#; 6000 N !
 FUNCTION PTL1C     298.15 +FV1L1C#**(-1)*P+FV5L1C#*FV1L1C#**(-1)*P; 6000 N !
 FUNCTION IATL1C    298.15 +3*FV6L1C#-1; 6000 N !
 FUNCTION FTL1C     298.15 +1+.666666667*IATL1C#*PTL1C#; 6000 N !
 FUNCTION LTFL1C    298.15 +1*LN(FTL1C#); 6000 N !
 FUNCTION IXTL1C    298.15 +1-IATL1C#**(-1)+IATL1C#**(-1)*EXP(.5*LTFL1C#); 
     6000 N !
 FUNCTION GPTL1C    298.15 +4.5*FV6L1C#*IXTL1C#**(-2)-3*IXTL1C#**(-2)
     -9*FV6L1C#*IXTL1C#**(-1)+3*IXTL1C#**(-1)+4.5*FV6L1C#; 6000 N !
 FUNCTION PT2L1C    298.15 +FV1L1C#**(-1)*P+FV7L1C#*FV1L1C#**(-1)*P; 6000 N !
 FUNCTION IYL1C     298.15 +1+2*FV8L1C#*PT2L1C#; 6000 N !
 FUNCTION LYL1C     298.15 +.5*LN(IYL1C#); 6000 N !
 FUNCTION YL1C      298.15 +1*EXP(LYL1C#); 6000 N !
 FUNCTION IBL1C     298.15 +FV8L1C#**(-1)-FV8L1C#**(-1)*EXP(LYL1C#); 6000 N !
 FUNCTION GBPL1C    298.15 +1+FV8L1C#-FV8L1C#*EXP(IBL1C#)-YL1C#*EXP(IBL1C#); 
     6000 N !
 FUNCTION GBML1C    298.15 +1+FV8L1C#; 6000 N !
 FUNCTION GBRL1C    298.15 +GBML1C#**(-1)*GBPL1C#; 6000 N !
 FUNCTION IGRL1C    298.15 +FV5L1C#*FV4L1C#**(-1)+FV4L1C#**(-1); 6000 N !
 FUNCTION INTL1C    298.15 +IGRL1C#**(-1)*GPTL1C#; 6000 N !
 FUNCTION TL1C      298.15 +FV3L1C#*EXP(INTL1C#); 6000 N !
 FUNCTION IEL1C     298.15 +1-1*EXP(-TL1C#*T**(-1)); 6000 N !
 FUNCTION IE0L1C    298.15 +1-1*EXP(-FV3L1C#*T**(-1)); 6000 N !
 FUNCTION GQHL1C    298.15 +3*R#*T*LN(IEL1C#)-3*R#*T*LN(IE0L1C#); 6000 N !
 FUNCTION DGTL1C    298.15 -HSEA9C#+SSEA9C#*T+GHSERCC#-3*R#*T*LN(IE0L1C#); 
     6000 N !

$ Parameters for liquid C - low pressure compressible addition 
 FUNCTION FV0L2C    298.15 +3.6E-06; 6000 N !
 FUNCTION FV1L2C    298.15 +4E+09; 6000 N !
 FUNCTION FV2L2C    298.15 +.1; 6000 N !
 FUNCTION FV3L2C    298.15 +6.5E-05; 6000 N !
 FUNCTION FV4L2C    298.15 +500; 6000 N !

$ EOS of liquid C - low pressure compressible addition
 FUNCTION PL2C      298.15 +FV1L2C#**(-1)*P; 6000 N !
 FUNCTION BVL2C     298.15 +FV0L2C#*FV1L2C#; 6000 N !
 FUNCTION IBPL2C    298.15 +FV2L2C#-1; 6000 N !
 FUNCTION AL2C      298.15 +FV2L2C#*FV3L2C#; 6000 N !
 FUNCTION ITL2C     298.15 +1+FV4L2C#**(-1)*T; 6000 N !
 FUNCTION LTL2C     298.15 +FV4L2C#*LN(ITL2C#); 6000 N !
 FUNCTION ATL2C     298.15 +AL2C#*T-AL2C#*LTL2C#; 6000 N !
 FUNCTION FL2C      298.15 +1*EXP(-ATL2C#)+FV2L2C#*PL2C#; 6000 N !
 FUNCTION LFL2C     298.15 +1*LN(FL2C#)-FV2L2C#**(-1)*LN(FL2C#); 6000 N !
 FUNCTION LF0L2C    298.15 -ATL2C#+FV2L2C#**(-1)*ATL2C#; 6000 N !
 FUNCTION GPCL2C    298.15 +IBPL2C#**(-1)*EXP(LFL2C#)
     -IBPL2C#**(-1)*EXP(LF0L2C#); 6000 N !
     
$ parameters for C in Fe:C end-member in FCC_A1 solution
 FUNCTION FV0A1C    298.15 +3.5E-06; 6000 N !
 FUNCTION FV1A1C    298.15 +2E+11; 6000 N !
 FUNCTION FV2A1C    298.15 +9; 6000 N !
 FUNCTION FV3A1C    298.15 +1350; 6000 N !
 FUNCTION FV4A1C    298.15 +2; 6000 N !
 FUNCTION FV5A1C    298.15 +5; 6000 N !
 FUNCTION FV6A1C    298.15 +1; 6000 N !
 FUNCTION FV7A1C    298.15 +10; 6000 N !
 FUNCTION FV8A1C    298.15 +1; 6000 N !
 
$ EOS for C in Fe:C end-member in FCC_A1 solution 
 FUNCTION PA1C      298.15 +FV1A1C#**(-1)*P; 6000 N !
 FUNCTION BVA1C     298.15 +FV0A1C#*FV1A1C#; 6000 N !
 FUNCTION IAA1C     298.15 +FV2A1C#-.333333333; 6000 N !
 FUNCTION FCA1C     298.15 +1+1.33333333*IAA1C#*PA1C#; 6000 N !
 FUNCTION LFCA1C    298.15 +1*LN(FCA1C#); 6000 N !
 FUNCTION IXCA1C    298.15 +1-IAA1C#**(-1)+IAA1C#**(-1)*EXP(.25*LFCA1C#); 
     6000 N !
 FUNCTION G2A1C     298.15 +1.5*FV2A1C#**3-6*FV2A1C#**2+8*FV2A1C#-3.55555555;
      6000 N !
 FUNCTION G1A1C     298.15 -9*FV2A1C#**3+27*FV2A1C#**2-24*FV2A1C#+5.33333333;
      6000 N !
 FUNCTION GLA1C     298.15 +9*FV2A1C#**3-18*FV2A1C#**2+9*FV2A1C#-1.33333333; 
     6000 N !
 FUNCTION GM1A1C    298.15 +3*FV2A1C#**3-3*FV2A1C#**2+FV2A1C#-.111111111; 
     6000 N !
 FUNCTION GPCA1C    298.15 +G2A1C#*IXCA1C#**(-2)+G1A1C#*IXCA1C#**(-1)
     -GLA1C#*LN(IXCA1C#)+GM1A1C#*IXCA1C#-G2A1C#-G1A1C#-GM1A1C#; 6000 N !
 FUNCTION PTA1C     298.15 +FV1A1C#**(-1)*P+FV5A1C#*FV1A1C#**(-1)*P; 6000 N !
 FUNCTION IATA1C    298.15 +3*FV6A1C#-1; 6000 N !
 FUNCTION FTA1C     298.15 +1+.666666667*IATA1C#*PTA1C#; 6000 N !
 FUNCTION LTFA1C    298.15 +1*LN(FTA1C#); 6000 N !
 FUNCTION IXTA1C    298.15 +1-IATA1C#**(-1)+IATA1C#**(-1)*EXP(.5*LTFA1C#); 
     6000 N !
 FUNCTION GPTA1C    298.15 +4.5*FV6A1C#*IXTA1C#**(-2)-3*IXTA1C#**(-2)
     -9*FV6A1C#*IXTA1C#**(-1)+3*IXTA1C#**(-1)+4.5*FV6A1C#; 6000 N !
 FUNCTION PT2A1C    298.15 +FV1A1C#**(-1)*P+FV7A1C#*FV1A1C#**(-1)*P; 6000 N !
 FUNCTION IYA1C     298.15 +1+2*FV8A1C#*PT2A1C#; 6000 N !
 FUNCTION LYA1C     298.15 +.5*LN(IYA1C#); 6000 N !
 FUNCTION YA1C      298.15 +1*EXP(LYA1C#); 6000 N !
 FUNCTION IBA1C     298.15 +FV8A1C#**(-1)-FV8A1C#**(-1)*EXP(LYA1C#); 6000 N !
 FUNCTION GBPA1C    298.15 +1+FV8A1C#-FV8A1C#*EXP(IBA1C#)-YA1C#*EXP(IBA1C#); 
     6000 N !
 FUNCTION GBMA1C    298.15 +1+FV8A1C#; 6000 N !
 FUNCTION GBRA1C    298.15 +GBMA1C#**(-1)*GBPA1C#; 6000 N !
 FUNCTION IGRA1C    298.15 +FV5A1C#*FV4A1C#**(-1)+FV4A1C#**(-1); 6000 N !
 FUNCTION INTA1C    298.15 +IGRA1C#**(-1)*GPTA1C#; 6000 N !
 FUNCTION TA1C      298.15 +FV3A1C#*EXP(INTA1C#); 6000 N !
 FUNCTION IEA1C     298.15 +1-1*EXP(-TA1C#*T**(-1)); 6000 N !
 FUNCTION IE0A1C    298.15 +1-1*EXP(-FV3A1C#*T**(-1)); 6000 N !
 FUNCTION GQHA1C    298.15 +3*R#*T*LN(IEA1C#)-3*R#*T*LN(IE0A1C#); 6000 N !
 FUNCTION DGTA1C    298.15 -HSEA9C#+SSEA9C#*T+GHSERCC#-3*R#*T*LN(IE0A1C#); 
     6000 N !
 FUNCTION IGPA1FC   298.15 +BVA1FE#*GPCA1FE#+BVA1C#*GPCA1C#
     -DGTA1FE#*GBRA1FE#-DGTA1C#*GBRA1C#; 6000 N !
     
     
$ parameters for C in Fe:C end-member in BCC_A2 solution     
 FUNCTION FV0A2C    298.15 +3.7E-06; 6000 N !
 FUNCTION FV1A2C    298.15 +2E+11; 6000 N !
 FUNCTION FV2A2C    298.15 +9; 6000 N !
 FUNCTION FV3A2C    298.15 +1350; 6000 N !
 FUNCTION FV4A2C    298.15 +2; 6000 N !
 FUNCTION FV5A2C    298.15 +5; 6000 N !
 FUNCTION FV6A2C    298.15 +1; 6000 N !
 FUNCTION FV7A2C    298.15 +10; 6000 N !